         9752559 function calls (9703528 primitive calls) in 40.129 seconds

   Ordered by: internal time

   ncalls  tottime  percall  cumtime  percall filename:lineno(function)
      702   16.302    0.023   16.302    0.023 {method 'acquire' of '_thread.lock' objects}
      115    9.217    0.080    9.217    0.080 {method 'recompute' of 'App.Document' objects}
       23    1.594    0.069    1.667    0.072 C:\Engineering Programs\FreeCAD 0.20\Mod\Fem\feminout\importCcxFrdResults.py:245(read_frd_result)
       23    1.018    0.044    1.018    0.044 {method 'writeABAQUS' of 'Fem.FemMesh' objects}
        6    0.966    0.161    0.966    0.161 {built-in method _imp.create_dynamic}
   237219    0.519    0.000    1.201    0.000 c:\Virtual_Environments\theeng\lib\site-packages\numpy\linalg\linalg.py:2342(norm)
    79061    0.515    0.000    2.509    0.000 C:\Engineering Programs\FreeCAD 0.20\Mod\Fem\femresult\resulttools.py:606(calculate_von_mises)
    79061    0.502    0.000    0.908    0.000 c:\Virtual_Environments\theeng\lib\site-packages\numpy\linalg\linalg.py:1065(eigvalsh)
      779    0.474    0.001    0.478    0.001 {built-in method io.open_code}
    94182    0.423    0.000    0.423    0.000 {method 'addVolume' of 'Fem.FemMesh' objects}
       23    0.368    0.016    0.368    0.016 {method 'getFacesByFace' of 'Fem.FemMesh' objects}
       23    0.364    0.016    0.364    0.016 {method 'getNodesByFace' of 'Fem.FemMesh' objects}
    79061    0.363    0.000    1.609    0.000 C:\Engineering Programs\FreeCAD 0.20\Mod\Fem\femresult\resulttools.py:616(calculate_principal_stress_std)
       74    0.344    0.005    0.344    0.005 {built-in method scipy.spatial._distance_pybind.cdist_euclidean}
399755/399413    0.297    0.000    3.381    0.000 {built-in method numpy.core._multiarray_umath.implement_array_function}
319808/319801    0.276    0.000    0.276    0.000 {built-in method numpy.asarray}
       23    0.272    0.012    0.350    0.015 C:\Engineering Programs\FreeCAD 0.20\Mod\Fem\feminout\importToolsFem.py:338(fill_femresult_mechanical)
       23    0.252    0.011    0.812    0.035 C:\Engineering Programs\FreeCAD 0.20\Mod\Fem\femmesh\meshtools.py:2442(compact_mesh)
        1    0.242    0.242    1.230    1.230 {built-in method FreeCAD.open}
       69    0.240    0.003    0.240    0.003 {built-in method _winapi.CreateProcess}
   237210    0.238    0.000    0.238    0.000 {method 'dot' of 'numpy.ndarray' objects}
     3715    0.230    0.000    0.230    0.000 {built-in method nt.stat}
    79107    0.228    0.000    0.686    0.000 c:\Virtual_Environments\theeng\lib\site-packages\numpy\core\_methods.py:164(_mean)
    81249    0.227    0.000    0.227    0.000 {method 'reduce' of 'numpy.ufunc' objects}
   158122    0.220    0.000    0.220    0.000 {method 'addNode' of 'Fem.FemMesh' objects}
    48249    0.185    0.000    0.185    0.000 {method 'getElementNodes' of 'Fem.FemMesh' objects}
      779    0.183    0.000    0.183    0.000 {method 'read' of '_io.BufferedReader' objects}
  1985218    0.175    0.000    0.175    0.000 {method 'append' of 'list' objects}
    79108    0.166    0.000    0.185    0.000 c:\Virtual_Environments\theeng\lib\site-packages\numpy\core\_methods.py:67(_count_reduce_items)
    83517    0.146    0.000    0.146    0.000 {built-in method numpy.array}
       23    0.139    0.006    0.149    0.006 C:\Engineering Programs\FreeCAD 0.20\Mod\Fem\femresult\resulttools.py:265(fill_femresult_stats)
       23    0.138    0.006    0.957    0.042 C:\Engineering Programs\FreeCAD 0.20\Mod\Fem\femresult\resulttools.py:580(compact_result)
   237219    0.137    0.000    1.546    0.000 <__array_function__ internals>:177(norm)
       23    0.130    0.006    8.696    0.378 C:\Engineering Programs\FreeCAD 0.20\Mod\Fem\feminout\importCcxFrdResults.py:69(importFrd)
       23    0.130    0.006    1.771    0.077 C:\Engineering Programs\FreeCAD 0.20\Mod\Fem\femresult\resulttools.py:386(add_principal_stress_std)
       69    0.116    0.002    0.116    0.002 {built-in method _winapi.WaitForSingleObject}
    79083    0.108    0.000    0.933    0.000 c:\Virtual_Environments\theeng\lib\site-packages\numpy\lib\function_base.py:396(average)
   872848    0.102    0.000    0.102    0.000 {built-in method builtins.issubclass}
   237866    0.102    0.000    0.102    0.000 {built-in method numpy.asanyarray}
   395392    0.093    0.000    0.134    0.000 c:\Virtual_Environments\theeng\lib\site-packages\numpy\linalg\linalg.py:117(isComplexType)
    79081    0.093    0.000    0.166    0.000 c:\Virtual_Environments\theeng\lib\site-packages\numpy\linalg\linalg.py:136(_commonType)
       23    0.079    0.003    2.602    0.113 C:\Engineering Programs\FreeCAD 0.20\Mod\Fem\femresult\resulttools.py:369(add_von_mises)
   237353    0.074    0.000    0.074    0.000 {method 'ravel' of 'numpy.ndarray' objects}
       23    0.069    0.003    0.376    0.016 C:\Engineering Programs\FreeCAD 0.20\Mod\Fem\feminout\importToolsFem.py:135(make_femmesh)
        1    0.062    0.062    0.424    0.424 c:\Virtual_Environments\theeng\lib\site-packages\pymoo\util\ref_dirs\reduction.py:64(_do)
    79083    0.052    0.000    1.054    0.000 <__array_function__ internals>:177(average)
   474366    0.051    0.000    0.051    0.000 {built-in method math.isnan}
     3751    0.051    0.000    0.051    0.000 {built-in method _codecs.charmap_decode}
   158162    0.050    0.000    0.069    0.000 c:\Virtual_Environments\theeng\lib\site-packages\numpy\linalg\linalg.py:130(_realType)
    79061    0.048    0.000    1.024    0.000 <__array_function__ internals>:177(eigvalsh)
    79103    0.048    0.000    0.733    0.000 {method 'mean' of 'numpy.ndarray' objects}
    79101    0.042    0.000    0.064    0.000 c:\Virtual_Environments\theeng\lib\site-packages\numpy\linalg\linalg.py:112(_makearray)
       23    0.039    0.002    8.738    0.380 C:\Engineering Programs\FreeCAD 0.20\Mod\Fem\femtools\ccxtools.py:818(load_results_ccxfrd)
     6747    0.037    0.000    0.058    0.000 <frozen importlib._bootstrap_external>:91(_path_join)
       23    0.037    0.002    0.642    0.028 C:\Engineering Programs\FreeCAD 0.20\Mod\Fem\femresult\resulttools.py:865(<listcomp>)
114503/114439    0.035    0.000    0.081    0.000 {built-in method builtins.hasattr}
   237219    0.033    0.000    0.033    0.000 c:\Virtual_Environments\theeng\lib\site-packages\numpy\linalg\linalg.py:2338(_norm_dispatcher)
      779    0.033    0.000    0.694    0.001 <frozen importlib._bootstrap_external>:1034(get_data)
    79081    0.032    0.000    0.032    0.000 c:\Virtual_Environments\theeng\lib\site-packages\numpy\linalg\linalg.py:186(_assert_stacked_square)
   233661    0.029    0.000    0.029    0.000 {method 'get' of 'dict' objects}
145366/145254    0.028    0.000    0.037    0.000 {built-in method builtins.isinstance}
      235    0.028    0.000    0.029    0.000 {built-in method io.open}
       23    0.027    0.001    0.419    0.018 C:\Engineering Programs\FreeCAD 0.20\Mod\Fem\femmesh\meshsetsgetter.py:271(get_constraints_force_nodeloads)
    79081    0.026    0.000    0.026    0.000 c:\Virtual_Environments\theeng\lib\site-packages\numpy\linalg\linalg.py:107(get_linalg_error_extobj)
        5    0.024    0.005    0.024    0.005 {method 'write' of '_io.TextIOWrapper' objects}
    80215    0.024    0.000    0.024    0.000 {method 'astype' of 'numpy.ndarray' objects}
23147/453    0.023    0.000    0.051    0.000 C:\Python38\lib\copy.py:128(deepcopy)
      775    0.023    0.000    0.023    0.000 {built-in method marshal.loads}
    79081    0.023    0.000    0.023    0.000 c:\Virtual_Environments\theeng\lib\site-packages\numpy\linalg\linalg.py:180(_assert_stacked_2d)
    15640    0.023    0.000    0.023    0.000 {method 'format' of 'str' objects}
9449/9078    0.022    0.000    1.152    0.000 C:\Virtual_Environments\theeng\Lib\site-packages\shiboken2\files.dir\shibokensupport\__feature__.py:105(_import)
    79069    0.021    0.000    0.021    0.000 {method 'sort' of 'list' objects}
       23    0.020    0.001    0.662    0.029 C:\Engineering Programs\FreeCAD 0.20\Mod\Fem\femresult\resulttools.py:363(add_disp_apps)
101004/97199    0.020    0.000    0.642    0.000 {built-in method builtins.getattr}
    79146    0.018    0.000    0.018    0.000 {built-in method numpy.core._multiarray_umath.normalize_axis_index}
9497/9078    0.018    0.000    1.124    0.000 {built-in method builtins.__import__}
      170    0.016    0.000    0.016    0.000 {built-in method nt.listdir}
     1132    0.015    0.000    0.022    0.000 {built-in method builtins.__build_class__}
1818/1694    0.013    0.000    1.957    0.001 <frozen importlib._bootstrap>:986(_find_and_load)
    79083    0.012    0.000    0.012    0.000 c:\Virtual_Environments\theeng\lib\site-packages\numpy\lib\function_base.py:391(_average_dispatcher)
     1316    0.012    0.000    0.264    0.000 <frozen importlib._bootstrap_external>:1498(find_spec)
       23    0.012    0.001   36.674    1.595 c:\Virtual_Environments\theeng\lib\site-packages\theeng\algorithms\simulators.py:42(femSimulator)
    79099    0.011    0.000    0.011    0.000 {method 'upper' of 'str' objects}
    79061    0.011    0.000    0.011    0.000 c:\Virtual_Environments\theeng\lib\site-packages\numpy\linalg\linalg.py:1061(_eigvalsh_dispatcher)
       23    0.011    0.000    0.015    0.001 C:\Engineering Programs\FreeCAD 0.20\Mod\Fem\femsolver\calculix\write_constraint_fixed.py:57(write_meshdata_constraint)
       23    0.010    0.000    0.378    0.016 C:\Engineering Programs\FreeCAD 0.20\Mod\Fem\femmesh\meshsetsgetter.py:164(get_constraints_fixed_nodes)
        1    0.010    0.010    0.017    0.017 c:\Virtual_Environments\theeng\lib\site-packages\pymoo\util\ref_dirs\reduction.py:11(kmeans)
      775    0.010    0.000    0.562    0.001 <frozen importlib._bootstrap_external>:914(get_code)
     6032    0.010    0.000    0.010    0.000 {built-in method _thread.allocate_lock}
       23    0.009    0.000    0.015    0.001 C:\Engineering Programs\FreeCAD 0.20\Mod\Fem\femmesh\meshsetsgetter.py:658(get_element_sets_material_and_femelement_geometry)
    79064    0.009    0.000    0.009    0.000 {method 'reverse' of 'list' objects}
      667    0.009    0.000    0.059    0.000 c:\Virtual_Environments\theeng\lib\site-packages\sklearn\utils\validation.py:629(check_array)
       69    0.009    0.000    0.009    0.000 {method 'removeObject' of 'App.Document' objects}
       23    0.008    0.000    0.009    0.000 C:\Engineering Programs\FreeCAD 0.20\Mod\Fem\femsolver\calculix\write_constraint_fixed.py:79(write_constraint)
       26    0.008    0.000    0.029    0.001 {built-in method builtins.print}
      782    0.008    0.000    0.008    0.000 {method 'addProperty' of 'App.DocumentObject' objects}
     1999    0.008    0.000    0.011    0.000 {built-in method builtins.max}
      667    0.008    0.000    0.029    0.000 c:\Virtual_Environments\theeng\lib\site-packages\sklearn\utils\validation.py:96(_assert_all_finite)
      211    0.008    0.000    0.034    0.000 c:\Virtual_Environments\theeng\lib\site-packages\sklearn\preprocessing\_polynomial.py:310(transform)
       50    0.007    0.000    0.007    0.000 {method 'decode' of 'bytes' objects}
      138    0.007    0.000    0.007    0.000 {built-in method _thread.start_new_thread}
53252/51784    0.007    0.000    0.008    0.000 {built-in method builtins.len}
    27544    0.007    0.000    0.007    0.000 {method 'startswith' of 'str' objects}
     2844    0.007    0.000    0.019    0.000 <frozen importlib._bootstrap>:157(_get_module_lock)
     1037    0.007    0.000    0.007    0.000 {built-in method builtins.dir}
 2818/369    0.007    0.000    0.049    0.000 C:\Python38\lib\copy.py:226(_deepcopy_dict)
     6072    0.006    0.000    0.014    0.000 C:\Engineering Programs\FreeCAD 0.20\Mod\Fem\femtools\femutils.py:101(is_derived_from)
    30791    0.006    0.000    0.006    0.000 {method 'endswith' of 'str' objects}
       23    0.006    0.000    0.006    0.000 {built-in method nt.mkdir}
    79061    0.006    0.000    0.006    0.000 C:\Engineering Programs\FreeCAD 0.20\Mod\Fem\feminout\importToolsFem.py:358(<lambda>)
      161    0.006    0.000    0.006    0.000 {method 'getElement' of 'Part.Shape' objects}
        6    0.006    0.001    0.008    0.001 c:\Virtual_Environments\theeng\lib\site-packages\scipy\linalg\_basic.py:1044(lstsq)
       23    0.006    0.000    0.012    0.001 C:\Engineering Programs\FreeCAD 0.20\Mod\Fem\femmesh\meshtools.py:1280(get_ref_facenodes_areas)
      788    0.006    0.000    0.300    0.000 <frozen importlib._bootstrap>:890(_find_spec)
       23    0.006    0.000    0.014    0.001 C:\Engineering Programs\FreeCAD 0.20\Mod\Fem\femsolver\calculix\write_constraint_force.py:45(write_meshdata_constraint)
     1550    0.006    0.000    0.030    0.000 <frozen importlib._bootstrap_external>:354(cache_from_source)
      535    0.006    0.000    0.029    0.000 c:\Virtual_Environments\theeng\lib\site-packages\plotly\basedatatypes.py:51(_str_to_dict_path_full)
       69    0.005    0.000    0.005    0.000 {method 'addObject' of 'App.Document' objects}
      447    0.005    0.000    0.005    0.000 {built-in method builtins.min}
6523/6490    0.005    0.000    0.014    0.000 c:\Virtual_Environments\theeng\lib\site-packages\plotly\basedatatypes.py:4893(__setattr__)
    17092    0.005    0.000    0.005    0.000 {method 'split' of 'str' objects}
      669    0.005    0.000    0.009    0.000 c:\Virtual_Environments\theeng\lib\site-packages\theeng\core\problem.py:217(_expressionEvaluator)
       46    0.005    0.000    0.005    0.000 {built-in method setCurrent}
 2992/669    0.005    0.000    0.031    0.000 C:\Python38\lib\copy.py:200(_deepcopy_list)
     6747    0.005    0.000    0.006    0.000 <frozen importlib._bootstrap_external>:114(<listcomp>)
      170    0.005    0.000    0.027    0.000 <frozen importlib._bootstrap_external>:1549(_fill_cache)
  934/715    0.005    0.000    0.249    0.000 c:\Virtual_Environments\theeng\lib\site-packages\plotly\basedatatypes.py:4650(__getitem__)
       23    0.005    0.000    0.391    0.017 C:\Engineering Programs\FreeCAD 0.20\Mod\Fem\femmesh\meshtools.py:1102(get_force_obj_face_nodeload_table)
2928/1003    0.005    0.000    0.007    0.000 c:\Virtual_Environments\theeng\lib\site-packages\_plotly_utils\utils.py:291(split_multichar)
     2844    0.004    0.000    0.005    0.000 <frozen importlib._bootstrap>:78(acquire)
      483    0.004    0.000    0.004    0.000 {built-in method _winapi.CloseHandle}
     3008    0.004    0.000    0.610    0.000 c:\Virtual_Environments\theeng\lib\site-packages\plotly\validator_cache.py:8(get_validator)
  918/107    0.004    0.000    0.742    0.007 c:\Virtual_Environments\theeng\lib\site-packages\plotly\basedatatypes.py:4788(__setitem__)
     2844    0.004    0.000    0.004    0.000 <frozen importlib._bootstrap>:103(release)
     4632    0.004    0.000    0.005    0.000 C:\Engineering Programs\FreeCAD 0.20\Mod\Fem\femmesh\meshtools.py:2146(get_triangle_area)
     7079    0.004    0.000    0.007    0.000 C:\Python38\lib\codecs.py:373(write)
      645    0.004    0.000    0.066    0.000 c:\Virtual_Environments\theeng\lib\site-packages\sklearn\base.py:464(_validate_data)
     1598    0.004    0.000    0.026    0.000 c:\Virtual_Environments\theeng\lib\site-packages\numpy\core\fromnumeric.py:69(_wrapreduction)
      781    0.004    0.000    0.028    0.000 <frozen importlib._bootstrap>:477(_init_module_attrs)
     6486    0.004    0.000    0.004    0.000 {method 'isDerivedFrom' of 'Base.BaseClass' objects}
     1012    0.004    0.000    0.018    0.000 C:\Engineering Programs\FreeCAD 0.20\Mod\Fem\femtools\membertools.py:39(get_member)
     3645    0.004    0.000    0.015    0.000 c:\Virtual_Environments\theeng\lib\site-packages\pymoo\core\individual.py:234(get)
  781/706    0.004    0.000    1.641    0.002 <frozen importlib._bootstrap>:650(_load_unlocked)
    35365    0.003    0.000    0.003    0.000 {built-in method builtins.id}
      223    0.003    0.000    0.003    0.000 {method 'factorize' of 'pandas._libs.hashtable.Float64HashTable' objects}
      261    0.003    0.000    0.020    0.000 c:\Virtual_Environments\theeng\lib\site-packages\pymoo\core\population.py:49(get)
  2460/60    0.003    0.000    0.014    0.000 c:\Virtual_Environments\theeng\lib\site-packages\autograd\numpy\numpy_wrapper.py:55(array)
    21818    0.003    0.000    0.003    0.000 {method 'rstrip' of 'str' objects}
  792/703    0.003    0.000    1.910    0.003 <frozen importlib._bootstrap>:956(_find_and_load_unlocked)
 2079/318    0.003    0.000    0.006    0.000 c:\Virtual_Environments\theeng\lib\site-packages\plotly\basedatatypes.py:5584(_vals_equal)
     3008    0.003    0.000    0.629    0.000 c:\Virtual_Environments\theeng\lib\site-packages\plotly\basedatatypes.py:4318(_get_validator)
     8680    0.003    0.000    0.003    0.000 {method 'rpartition' of 'str' objects}
       24    0.003    0.000    0.003    0.000 {method 'close' of '_io.BufferedWriter' objects}
     5920    0.003    0.000    0.004    0.000 C:\Python38\lib\copy.py:242(_keep_alive)
 1171/937    0.003    0.000    0.667    0.001 c:\Virtual_Environments\theeng\lib\site-packages\_plotly_utils\importers.py:23(__getattr__)
     1472    0.003    0.000    0.007    0.000 c:\Virtual_Environments\theeng\lib\site-packages\numpy\core\_ufunc_config.py:33(seterr)
      788    0.003    0.000    0.290    0.000 <frozen importlib._bootstrap_external>:1367(_get_spec)
      724    0.003    0.000    0.006    0.000 c:\Virtual_Environments\theeng\lib\site-packages\sklearn\utils\validation.py:320(_num_samples)
1719/1669    0.003    0.000    0.913    0.001 C:\Python38\lib\importlib\__init__.py:109(import_module)
     2843    0.003    0.000    0.011    0.000 <frozen importlib._bootstrap>:58(__init__)
      217    0.003    0.000    0.007    0.000 c:\Virtual_Environments\theeng\lib\site-packages\sklearn\utils\extmath.py:156(safe_sparse_dot)
     2843    0.003    0.000    0.004    0.000 <frozen importlib._bootstrap>:176(cb)
      781    0.003    0.000    0.007    0.000 <frozen importlib._bootstrap_external>:689(spec_from_file_location)
     9680    0.003    0.000    0.003    0.000 {method 'join' of 'str' objects}
     7079    0.003    0.000    0.009    0.000 C:\Python38\lib\codecs.py:719(write)
      204    0.003    0.000    0.005    0.000 {method 'choice' of 'numpy.random.mtrand.RandomState' objects}
     3570    0.003    0.000    0.223    0.000 <frozen importlib._bootstrap_external>:135(_path_stat)
        3    0.003    0.001    0.290    0.097 c:\Virtual_Environments\theeng\lib\site-packages\plotly\io\_html.py:379(write_html)
     4422    0.003    0.000    0.004    0.000 <frozen importlib._bootstrap>:389(parent)
     2460    0.003    0.000    0.004    0.000 c:\Virtual_Environments\theeng\lib\site-packages\autograd\tracer.py:65(find_top_boxed_args)
 1084/542    0.003    0.000    0.010    0.000 c:\Virtual_Environments\theeng\lib\site-packages\_plotly_utils\utils.py:382(chomp_empty_strings)
     3751    0.002    0.000    0.053    0.000 C:\Python38\lib\encodings\cp1252.py:22(decode)
     1550    0.002    0.000    0.007    0.000 <frozen importlib._bootstrap_external>:127(_path_split)
      211    0.002    0.000    0.028    0.000 c:\Virtual_Environments\theeng\lib\site-packages\sklearn\preprocessing\_data.py:974(transform)
      592    0.002    0.000    0.033    0.000 c:\Virtual_Environments\theeng\lib\site-packages\plotly\basedatatypes.py:5162(_set_prop)
     6845    0.002    0.000    0.002    0.000 <frozen importlib._bootstrap>:222(_verbose_message)
1724/1669    0.002    0.000    0.910    0.001 <frozen importlib._bootstrap>:1002(_gcd_import)
       23    0.002    0.000    0.011    0.000 C:\Engineering Programs\FreeCAD 0.20\Mod\Fem\femobjects\result_mechanical.py:43(__init__)
      138    0.002    0.000    0.002    0.000 {built-in method _winapi.CreatePipe}
       29    0.002    0.000    0.004    0.000 c:\Virtual_Environments\theeng\lib\site-packages\pymoo\operators\mutation\pm.py:14(mut_pm)
     1192    0.002    0.000    0.003    0.000 c:\Virtual_Environments\theeng\lib\site-packages\pymoo\core\individual.py:127(FEAS)
     1472    0.002    0.000    0.002    0.000 c:\Virtual_Environments\theeng\lib\site-packages\numpy\core\_ufunc_config.py:132(geterr)
       23    0.002    0.000    0.041    0.002 C:\Engineering Programs\FreeCAD 0.20\Mod\Fem\femresult\resulttools.py:37(purge_results)
3983/3446    0.002    0.000    0.014    0.000 c:\Virtual_Environments\theeng\lib\site-packages\plotly\basedatatypes.py:4399(_props)
     4473    0.002    0.000    0.010    0.000 c:\Virtual_Environments\theeng\lib\site-packages\plotly\basedatatypes.py:1802(_str_to_dict_path)
  775/700    0.002    0.000    0.641    0.001 <frozen importlib._bootstrap_external>:842(exec_module)
      229    0.002    0.000    0.006    0.000 c:\Virtual_Environments\theeng\lib\site-packages\pymoo\core\population.py:27(set)
3400/2316    0.002    0.000    0.017    0.000 {built-in method _functools.reduce}
      775    0.002    0.000    0.004    0.000 <frozen importlib._bootstrap_external>:553(_classify_pyc)
      951    0.002    0.000    0.005    0.000 <frozen importlib._bootstrap_external>:167(_path_isabs)
       29    0.002    0.000    0.008    0.000 c:\Virtual_Environments\theeng\lib\site-packages\pymoo\operators\crossover\sbx.py:13(cross_sbx)
    11580    0.002    0.000    0.002    0.000 c:\Virtual_Environments\theeng\lib\site-packages\autograd\tracer.py:123(<lambda>)
       23    0.002    0.000    0.003    0.000 C:\Engineering Programs\FreeCAD 0.20\Mod\Fem\femtools\checksanalysis.py:40(check_member_for_solver_calculix)
    15320    0.002    0.000    0.002    0.000 {method 'pop' of 'dict' objects}
       23    0.002    0.000   16.428    0.714 C:\Engineering Programs\FreeCAD 0.20\Mod\Fem\femtools\ccxtools.py:586(ccx_run)
      627    0.002    0.000    0.004    0.000 c:\Virtual_Environments\theeng\lib\site-packages\sklearn\utils\validation.py:1385(<listcomp>)
       69    0.002    0.000   16.323    0.237 C:\Python38\lib\subprocess.py:1374(_communicate)
     1818    0.002    0.000    0.019    0.000 <frozen importlib._bootstrap>:147(__enter__)
    17205    0.002    0.000    0.002    0.000 C:\Python38\lib\copy.py:182(_deepcopy_atomic)
  775/700    0.002    0.000    0.131    0.000 {built-in method builtins.exec}
      966    0.002    0.000    0.004    0.000 C:\Engineering Programs\FreeCAD 0.20\Mod\Fem\femtools\femutils.py:73(type_of_obj)
     2325    0.002    0.000    0.003    0.000 <frozen importlib._bootstrap_external>:79(_unpack_uint32)
   238/10    0.002    0.000    0.701    0.070 c:\Virtual_Environments\theeng\lib\site-packages\plotly\basedatatypes.py:5228(_set_compound_prop)
        3    0.002    0.001    0.298    0.099 c:\Virtual_Environments\theeng\lib\site-packages\plotly\basedatatypes.py:3584(write_html)
     2571    0.002    0.000    0.003    0.000 {built-in method _abc._abc_instancecheck}
      645    0.002    0.000    0.002    0.000 c:\Virtual_Environments\theeng\lib\site-packages\sklearn\utils\validation.py:267(_num_features)
     9449    0.002    0.000    0.002    0.000 {built-in method sys._getframe}
     1309    0.002    0.000    0.115    0.000 <frozen importlib._bootstrap_external>:145(_path_is_mode_type)
     5413    0.002    0.000    0.004    0.000 c:\Virtual_Environments\theeng\lib\site-packages\pandas\core\dtypes\generic.py:45(_instancecheck)
       29    0.002    0.000    0.007    0.000 c:\Virtual_Environments\theeng\lib\site-packages\pymoo\algorithms\moo\nsga3.py:23(comp_by_cv_then_random)
      461    0.002    0.000    0.003    0.000 c:\Virtual_Environments\theeng\lib\site-packages\_plotly_utils\utils.py:311(split_string_positions)
     7080    0.002    0.000    0.002    0.000 {method 'write' of '_io.BufferedWriter' objects}
       23    0.002    0.000    0.002    0.000 {method 'emit' of 'PySide2.QtCore.SignalInstance' objects}
     1029    0.002    0.000    0.012    0.000 c:\Virtual_Environments\theeng\lib\site-packages\_plotly_utils\basevalidators.py:18(fullmatch)
      684    0.002    0.000    0.003    0.000 c:\Virtual_Environments\theeng\lib\site-packages\sklearn\utils\_array_api.py:168(_asarray_with_order)
       46    0.002    0.000    0.002    0.000 {built-in method nt.putenv}
      781    0.002    0.000    0.997    0.001 <frozen importlib._bootstrap>:549(module_from_spec)
     2720    0.002    0.000    0.003    0.000 {built-in method builtins.any}
      160    0.002    0.000    0.002    0.000 c:\Virtual_Environments\theeng\lib\site-packages\numpy\lib\arraysetops.py:323(_unique1d)
     4650    0.002    0.000    0.003    0.000 <frozen importlib._bootstrap_external>:129(<genexpr>)
      775    0.002    0.000    0.026    0.000 <frozen importlib._bootstrap_external>:638(_compile_bytecode)
      900    0.002    0.000    0.010    0.000 c:\Virtual_Environments\theeng\lib\site-packages\numpy\core\fromnumeric.py:2188(sum)
     5413    0.002    0.000    0.002    0.000 c:\Virtual_Environments\theeng\lib\site-packages\pandas\core\dtypes\generic.py:40(_check)
   241/13    0.002    0.000    0.678    0.052 c:\Virtual_Environments\theeng\lib\site-packages\_plotly_utils\basevalidators.py:2471(validate_coerce)
      138    0.002    0.000    0.005    0.000 C:\Python38\lib\threading.py:761(__init__)
     2447    0.002    0.000    0.004    0.000 c:\Virtual_Environments\theeng\lib\site-packages\sklearn\_config.py:30(get_config)
      268    0.002    0.000    0.002    0.000 c:\Virtual_Environments\theeng\lib\site-packages\pandas\core\internals\managers.py:1129(iget)
     2658    0.002    0.000    0.002    0.000 {method 'match' of 're.Pattern' objects}
      161    0.002    0.000    0.009    0.000 C:\Engineering Programs\FreeCAD 0.20\Mod\Fem\femtools\femutils.py:340(get_refshape_type)
       14    0.002    0.000    0.004    0.000 c:\Virtual_Environments\theeng\lib\site-packages\pymoo\algorithms\moo\nsga3.py:194(niching)
     2460    0.002    0.000    0.008    0.000 c:\Virtual_Environments\theeng\lib\site-packages\autograd\tracer.py:35(f_wrapped)
      781    0.002    0.000    0.014    0.000 c:\Virtual_Environments\theeng\lib\site-packages\_plotly_utils\basevalidators.py:1407(perform_validate_coerce)
      457    0.002    0.000    0.006    0.000 c:\Virtual_Environments\theeng\lib\site-packages\plotly\basedatatypes.py:4253(__init__)
      115    0.002    0.000    0.006    0.000 C:\Engineering Programs\FreeCAD 0.20\Mod\Fem\femtools\geomtools.py:175(get_element)
       69    0.002    0.000    0.002    0.000 {method 'close' of '_io.TextIOWrapper' objects}
      627    0.002    0.000    0.006    0.000 c:\Virtual_Environments\theeng\lib\site-packages\sklearn\utils\validation.py:1322(check_is_fitted)
      781    0.002    0.000    0.009    0.000 <frozen importlib._bootstrap_external>:1493(_get_spec)
      205    0.002    0.000    0.026    0.000 c:\Virtual_Environments\theeng\lib\site-packages\sklearn\linear_model\_base.py:334(_decision_function)
       46    0.002    0.000    0.572    0.012 C:\Engineering Programs\FreeCAD 0.20\Mod\Fem\femtools\ccxtools.py:410(setup_ccx)
      760    0.002    0.000    0.003    0.000 C:\Python38\lib\warnings.py:181(_add_filter)
       23    0.002    0.000    0.002    0.000 C:\Engineering Programs\FreeCAD 0.20\Mod\Fem\femsolver\calculix\write_femelement_material.py:32(write_femelement_material)
       58    0.002    0.000    0.002    0.000 c:\Virtual_Environments\theeng\lib\site-packages\pymoo\operators\crossover\sbx.py:41(calc_betaq)
     1811    0.001    0.000    0.007    0.000 C:\Python38\lib\re.py:289(_compile)
       69    0.001    0.000    0.248    0.004 C:\Python38\lib\subprocess.py:1228(_execute_child)
      741    0.001    0.000    0.002    0.000 C:\Python38\lib\warnings.py:458(__enter__)
     2460    0.001    0.000    0.003    0.000 c:\Virtual_Environments\theeng\lib\site-packages\autograd\tracer.py:58(f_wrapped)
      224    0.001    0.000    0.015    0.000 c:\Virtual_Environments\theeng\lib\site-packages\pandas\core\algorithms.py:530(factorize_array)
      339    0.001    0.000    0.002    0.000 c:\Virtual_Environments\theeng\lib\site-packages\pandas\core\generic.py:5844(__finalize__)
       23    0.001    0.000   16.138    0.702 C:\Engineering Programs\FreeCAD 0.20\Mod\Fem\femtools\ccxtools.py:525(start_ccx)
     1258    0.001    0.000    0.002    0.000 c:\Virtual_Environments\theeng\lib\site-packages\plotly\basedatatypes.py:724(__getitem__)
      200    0.001    0.000    0.090    0.000 c:\Virtual_Environments\theeng\lib\site-packages\theeng\core\surrogate.py:54(_predict)
      951    0.001    0.000    0.001    0.000 {built-in method nt._path_splitroot}
     1169    0.001    0.000    0.003    0.000 <frozen importlib._bootstrap>:872(_resolve_name)
        1    0.001    0.001    0.344    0.344 c:\Virtual_Environments\theeng\lib\site-packages\pymoo\util\reference_direction.py:225(select_points_with_maximum_distance)
       69    0.001    0.000    0.002    0.000 C:\Python38\lib\subprocess.py:521(list2cmdline)
    10462    0.001    0.000    0.001    0.000 {method 'lower' of 'str' objects}
     7079    0.001    0.000    0.001    0.000 {built-in method _codecs.utf_8_encode}
      115    0.001    0.000    0.001    0.000 {built-in method GetBool}
      160    0.001    0.000    0.002    0.000 c:\Virtual_Environments\theeng\lib\site-packages\_plotly_utils\importers.py:21(<dictcomp>)
     1327    0.001    0.000    0.022    0.000 <frozen importlib._bootstrap_external>:1330(_path_importer_cache)
      832    0.001    0.000    0.003    0.000 c:\Virtual_Environments\theeng\lib\site-packages\plotly\basedatatypes.py:5763(_strip_subplot_suffix_of_1)
  436/430    0.001    0.000    0.216    0.001 c:\Virtual_Environments\theeng\lib\site-packages\plotly\basedatatypes.py:159(_check_path_in_prop_tree)
       20    0.001    0.000    0.002    0.000 c:\Virtual_Environments\theeng\lib\site-packages\numpy\linalg\linalg.py:306(solve)
        6    0.001    0.000    0.001    0.000 c:\Virtual_Environments\theeng\lib\site-packages\scipy\linalg\lapack.py:979(_compute_lwork)
  362/361    0.001    0.000    0.009    0.000 c:\Virtual_Environments\theeng\lib\site-packages\pandas\core\series.py:342(__init__)
       46    0.001    0.000    0.001    0.000 {method 'addObject' of 'App.GroupExtension' objects}
      170    0.001    0.000    0.002    0.000 <frozen importlib._bootstrap_external>:1578(<setcomp>)
     8065    0.001    0.000    0.001    0.000 {built-in method _imp.acquire_lock}
  993/833    0.001    0.000    0.001    0.000 {built-in method _abc._abc_subclasscheck}
     1724    0.001    0.000    0.002    0.000 <frozen importlib._bootstrap>:937(_sanity_check)
     1818    0.001    0.000    0.005    0.000 <frozen importlib._bootstrap>:151(__exit__)
     6690    0.001    0.000    0.001    0.000 c:\Virtual_Environments\theeng\lib\site-packages\theeng\core\problem.py:268(<genexpr>)
       69    0.001    0.000    0.256    0.004 C:\Python38\lib\subprocess.py:736(__init__)
      200    0.001    0.000    0.100    0.001 c:\Virtual_Environments\theeng\lib\site-packages\theeng\core\optimizer.py:135(_evaluate)
       81    0.001    0.000    0.002    0.000 {pandas._libs.lib.maybe_convert_objects}
      781    0.001    0.000    0.019    0.000 <frozen importlib._bootstrap_external>:484(_get_cached)
     8065    0.001    0.000    0.001    0.000 {built-in method _imp.release_lock}
      406    0.001    0.000    0.002    0.000 c:\Virtual_Environments\theeng\lib\site-packages\pandas\core\generic.py:259(__init__)
       69    0.001    0.000    0.001    0.000 {method 'set' of 'Spreadsheet.Sheet' objects}
     8036    0.001    0.000    0.001    0.000 c:\Virtual_Environments\theeng\lib\site-packages\plotly\basedatatypes.py:4611(parent)
     1556    0.001    0.000    0.020    0.000 <frozen importlib._bootstrap>:376(cached)
     3238    0.001    0.000    0.001    0.000 {method 'rfind' of 'str' objects}
     1340    0.001    0.000    0.003    0.000 c:\Virtual_Environments\theeng\lib\site-packages\sklearn\utils\_array_api.py:90(get_namespace)
       20    0.001    0.000    0.067    0.003 c:\Virtual_Environments\theeng\lib\site-packages\pymoo\algorithms\moo\nsga3.py:131(_do)
       23    0.001    0.000    0.004    0.000 C:\Engineering Programs\FreeCAD 0.20\Mod\Fem\femtools\ccxtools.py:72(__init__)
       23    0.001    0.000    0.001    0.000 C:\Engineering Programs\FreeCAD 0.20\Mod\Fem\femmesh\meshtools.py:1598(get_ref_shape_node_sum_geom_table)
     4632    0.001    0.000    0.001    0.000 {method 'cross' of 'Base.Vector' objects}
     1026    0.001    0.000    0.009    0.000 <frozen importlib._bootstrap>:194(_lock_unlock_module)
      138    0.001    0.000    0.044    0.000 C:\Python38\lib\threading.py:540(wait)
       23    0.001    0.000    0.004    0.000 C:\Engineering Programs\FreeCAD 0.20\Mod\Fem\feminout\importCcxDatResults.py:82(readResult)
        4    0.001    0.000    0.001    0.000 {built-in method nt.open}
     2060    0.001    0.000    0.001    0.000 {built-in method builtins.setattr}
     2535    0.001    0.000    0.003    0.000 c:\Virtual_Environments\theeng\lib\site-packages\pymoo\core\individual.py:227(set)
       23    0.001    0.000    1.072    0.047 C:\Engineering Programs\FreeCAD 0.20\Mod\Fem\femsolver\calculix\writer.py:133(write_solver_input)
      224    0.001    0.000    0.020    0.000 c:\Virtual_Environments\theeng\lib\site-packages\pandas\core\algorithms.py:593(factorize)
        1    0.001    0.001    0.001    0.001 {pandas._libs.algos.nancorr}
      775    0.001    0.000    0.038    0.000 <frozen importlib._bootstrap_external>:1075(path_stats)
      200    0.001    0.000    0.087    0.000 c:\Virtual_Environments\theeng\lib\site-packages\sklearn\pipeline.py:449(predict)
        3    0.001    0.000    0.035    0.012 c:\Virtual_Environments\theeng\lib\site-packages\pandas\core\frame.py:6684(duplicated)
      681    0.001    0.000    0.002    0.000 c:\Virtual_Environments\theeng\lib\site-packages\pandas\core\generic.py:5904(__setattr__)
     5680    0.001    0.000    0.001    0.000 {method 'add' of 'set' objects}
     6280    0.001    0.000    0.001    0.000 {method 'items' of 'dict' objects}
     5196    0.001    0.000    0.001    0.000 {method 'partition' of 'str' objects}
      775    0.001    0.000    0.002    0.000 <frozen importlib._bootstrap_external>:586(_validate_timestamp_pyc)
     5965    0.001    0.000    0.001    0.000 {built-in method _thread.get_ident}
        3    0.001    0.000    0.262    0.087 c:\Virtual_Environments\theeng\lib\site-packages\plotly\io\_html.py:27(to_html)
      575    0.001    0.000    0.001    0.000 {built-in method __FreeCADConsole__.PrintLog}
     1088    0.001    0.000    0.001    0.000 {built-in method numpy.empty}
      141    0.001    0.000    0.001    0.000 C:\Python38\lib\threading.py:222(__init__)
  607/589    0.001    0.000    0.170    0.000 c:\Virtual_Environments\theeng\lib\site-packages\plotly\basedatatypes.py:5819(__getitem__)
       97    0.001    0.000    0.001    0.000 {method 'argmin' of 'numpy.ndarray' objects}
       69    0.001    0.000    0.004    0.000 C:\Python38\lib\subprocess.py:1101(_close_pipe_fds)
     3853    0.001    0.000    0.001    0.000 {method 'setter' of 'property' objects}
      110    0.001    0.000    0.001    0.000 {method 'permutation' of 'numpy.random.mtrand.RandomState' objects}
     2457    0.001    0.000    0.002    0.000 c:\Virtual_Environments\theeng\lib\site-packages\sklearn\_config.py:22(_get_threadlocal_config)
     2425    0.001    0.000    0.005    0.000 c:\Virtual_Environments\theeng\lib\site-packages\pymoo\core\individual.py:112(CV)
        6    0.001    0.000    0.001    0.000 {built-in method _imp.exec_dynamic}
      542    0.001    0.000    0.014    0.000 c:\Virtual_Environments\theeng\lib\site-packages\plotly\basedatatypes.py:93(_split_and_chomp)
     1598    0.001    0.000    0.001    0.000 c:\Virtual_Environments\theeng\lib\site-packages\numpy\core\fromnumeric.py:70(<dictcomp>)
     2571    0.001    0.000    0.004    0.000 C:\Python38\lib\abc.py:96(__instancecheck__)
  434/422    0.001    0.000    0.070    0.000 c:\Virtual_Environments\theeng\lib\site-packages\sklearn\utils\_set_output.py:140(wrapped)
    63/21    0.001    0.000    0.003    0.000 C:\Python38\lib\sre_parse.py:493(_parse)
  269/186    0.001    0.000    0.010    0.000 c:\Virtual_Environments\theeng\lib\site-packages\plotly\basedatatypes.py:4422(_get_child_props)
      900    0.001    0.000    0.012    0.000 <__array_function__ internals>:177(sum)
      127    0.001    0.000    0.001    0.000 c:\Virtual_Environments\theeng\lib\site-packages\pandas\core\indexes\base.py:5254(__contains__)
      167    0.001    0.000    0.001    0.000 {built-in method FreeCAD.ParamGet}
     3300    0.001    0.000    0.020    0.000 c:\Virtual_Environments\theeng\lib\site-packages\_plotly_utils\optional_imports.py:15(get_module)
      514    0.001    0.000    0.004    0.000 c:\Virtual_Environments\theeng\lib\site-packages\numpy\core\numeric.py:290(full)
     1136    0.001    0.000    0.109    0.000 <frozen importlib._bootstrap_external>:154(_path_isfile)
     1472    0.001    0.000    0.001    0.000 {built-in method numpy.seterrobj}
      730    0.001    0.000    0.003    0.000 C:\Python38\lib\warnings.py:165(simplefilter)
     2378    0.001    0.000    0.001    0.000 <frozen importlib._bootstrap>:867(__exit__)
      138    0.001    0.000    0.043    0.000 C:\Python38\lib\threading.py:270(wait)
        9    0.001    0.000    0.005    0.001 C:\Python38\lib\json\encoder.py:204(iterencode)
     1818    0.001    0.000    0.001    0.000 <frozen importlib._bootstrap>:143(__init__)
     1548    0.001    0.000    0.006    0.000 C:\Python38\lib\re.py:188(match)
      434    0.001    0.000    0.002    0.000 c:\Virtual_Environments\theeng\lib\site-packages\sklearn\utils\_set_output.py:65(_get_output_config)
      138    0.001    0.000   16.263    0.118 C:\Python38\lib\threading.py:979(join)
      400    0.001    0.000    0.003    0.000 c:\Virtual_Environments\theeng\lib\site-packages\pymoo\core\individual.py:305(constr_to_cv)
       29    0.001    0.000    0.015    0.001 c:\Virtual_Environments\theeng\lib\site-packages\pymoo\core\crossover.py:20(do)
 1341/657    0.001    0.000    0.007    0.000 {built-in method builtins.all}
      775    0.001    0.000    0.001    0.000 <frozen importlib._bootstrap>:35(_new_module)
      788    0.001    0.000    0.291    0.000 <frozen importlib._bootstrap_external>:1399(find_spec)
      158    0.001    0.000    0.002    0.000 c:\Virtual_Environments\theeng\lib\site-packages\numpy\lib\shape_base.py:1191(tile)
       46    0.001    0.000    0.001    0.000 C:\Engineering Programs\FreeCAD 0.20\Mod\Fem\femobjects\base_fempythonobject.py:38(__init__)
       23    0.001    0.000    0.012    0.001 C:\Engineering Programs\FreeCAD 0.20\Mod\Fem\femtools\ccxtools.py:849(load_results_ccxdat)
      170    0.001    0.000    0.003    0.000 <frozen importlib._bootstrap_external>:1459(__init__)
       95    0.001    0.000    0.001    0.000 c:\Virtual_Environments\theeng\lib\site-packages\numpy\lib\stride_tricks.py:340(_broadcast_to)
      225    0.001    0.000    0.005    0.000 c:\Virtual_Environments\theeng\lib\site-packages\pandas\core\algorithms.py:117(_ensure_data)
      170    0.001    0.000    0.021    0.000 <frozen importlib._bootstrap_external>:1317(_path_hooks)
       23    0.001    0.000    0.003    0.000 C:\Engineering Programs\FreeCAD 0.20\Mod\Fem\femsolver\writerbase.py:40(__init__)
     3300    0.001    0.000    0.001    0.000 {method 'replace' of 'str' objects}
      775    0.001    0.000    0.001    0.000 <frozen importlib._bootstrap_external>:516(_check_name_wrapper)
       23    0.001    0.000    0.003    0.000 C:\Engineering Programs\FreeCAD 0.20\Mod\Fem\femtools\ccxtools.py:179(find_analysis)
        1    0.001    0.001    0.001    0.001 {method 'uniform' of 'numpy.random._generator.Generator' objects}
      736    0.001    0.000    0.004    0.000 c:\Virtual_Environments\theeng\lib\site-packages\numpy\core\_ufunc_config.py:435(__exit__)
      170    0.001    0.000    0.010    0.000 <frozen zipimport>:63(__init__)
     8465    0.001    0.000    0.001    0.000 {built-in method builtins.abs}
      741    0.001    0.000    0.001    0.000 C:\Python38\lib\warnings.py:477(__exit__)
       23    0.001    0.000    0.005    0.000 C:\Engineering Programs\FreeCAD 0.20\Mod\Fem\femsolver\calculix\writer.py:107(__init__)
      207    0.001    0.000    0.001    0.000 C:\Python38\lib\contextlib.py:429(callback)
      200    0.001    0.000    0.004    0.000 c:\Virtual_Environments\theeng\lib\site-packages\pymoo\core\individual.py:278(calc_cv)
       20    0.001    0.000    0.001    0.000 c:\Virtual_Environments\theeng\lib\site-packages\pymoo\algorithms\moo\nsga3.py:299(get_extreme_points_c)
       58    0.001    0.000    0.002    0.000 c:\Virtual_Environments\theeng\lib\site-packages\pymoo\operators\repair\bounds_repair.py:31(repair_clamp)
     2241    0.001    0.000    0.001    0.000 c:\Virtual_Environments\theeng\lib\site-packages\sklearn\utils\_array_api.py:63(__getattr__)
      736    0.001    0.000    0.005    0.000 c:\Virtual_Environments\theeng\lib\site-packages\numpy\core\_ufunc_config.py:430(__enter__)
     2833    0.001    0.000    0.001    0.000 {method 'copy' of 'dict' objects}
     2378    0.001    0.000    0.001    0.000 <frozen importlib._bootstrap>:863(__enter__)
       64    0.001    0.000    0.002    0.000 C:\Python38\lib\inspect.py:2124(_signature_from_function)
      234    0.001    0.000    0.001    0.000 {method 'random' of 'numpy.random.mtrand.RandomState' objects}
     1081    0.001    0.000    0.001    0.000 c:\Virtual_Environments\theeng\lib\site-packages\pandas\core\dtypes\common.py:1591(_is_dtype_type)
     1012    0.001    0.000    0.026    0.000 C:\Engineering Programs\FreeCAD 0.20\Mod\Fem\femtools\membertools.py:89(get_several_member)
  512/461    0.001    0.000    0.093    0.000 <frozen importlib._bootstrap>:1017(_handle_fromlist)
       46    0.001    0.000    0.001    0.000 C:\Engineering Programs\FreeCAD 0.20\Mod\Fem\femmesh\meshsetsgetter.py:40(__init__)
      272    0.001    0.000    0.009    0.000 c:\Virtual_Environments\theeng\lib\site-packages\pandas\core\frame.py:3703(_ixs)
      138    0.001    0.000    0.052    0.000 C:\Python38\lib\threading.py:834(start)
      633    0.001    0.000    0.001    0.000 c:\Virtual_Environments\theeng\lib\site-packages\sklearn\pipeline.py:249(_iter)
      449    0.001    0.000    0.002    0.000 c:\Virtual_Environments\theeng\lib\site-packages\pandas\core\algorithms.py:197(_reconstruct_data)
     2460    0.001    0.000    0.001    0.000 c:\Virtual_Environments\theeng\lib\site-packages\autograd\tracer.py:124(<lambda>)
       23    0.001    0.000    1.904    0.083 C:\Engineering Programs\FreeCAD 0.20\Mod\Fem\femtools\ccxtools.py:376(write_inp_file)
       85    0.001    0.000    0.441    0.005 c:\Virtual_Environments\theeng\lib\site-packages\_plotly_utils\basevalidators.py:2556(validate_coerce)
     1316    0.001    0.000    0.001    0.000 <frozen importlib._bootstrap_external>:64(_relax_case)
      609    0.001    0.000    0.002    0.000 <__array_function__ internals>:177(copyto)
      645    0.001    0.000    0.003    0.000 c:\Virtual_Environments\theeng\lib\site-packages\sklearn\base.py:329(_check_n_features)
       46    0.001    0.000    0.001    0.000 {method 'get' of 'Spreadsheet.Sheet' objects}
       58    0.001    0.000    0.002    0.000 c:\Virtual_Environments\theeng\lib\site-packages\_plotly_utils\basevalidators.py:424(__init__)
      277    0.001    0.000    0.009    0.000 c:\Virtual_Environments\theeng\lib\site-packages\pandas\core\frame.py:4274(_get_item_cache)
      253    0.001    0.000    0.002    0.000 c:\Virtual_Environments\theeng\lib\site-packages\numpy\core\_dtype.py:344(_name_get)
      670    0.001    0.000    0.001    0.000 {method 'extend' of 'list' objects}
       69    0.001    0.000    0.004    0.000 C:\Python38\lib\subprocess.py:1134(_get_handles)
      741    0.001    0.000    0.001    0.000 C:\Python38\lib\warnings.py:437(__init__)
     1800    0.001    0.000    0.001    0.000 c:\Virtual_Environments\theeng\lib\site-packages\autograd\numpy\numpy_wrapper.py:71(_array_from_scalar_or_array)
       69    0.001    0.000    0.001    0.000 C:\Engineering Programs\FreeCAD 0.20\Mod\Fem\femmesh\meshsetsgetter.py:1069(print_obj_info)
    57/41    0.001    0.000    0.005    0.000 c:\Virtual_Environments\theeng\lib\site-packages\pandas\core\indexes\base.py:430(__new__)
       23    0.001    0.000    0.001    0.000 {method 'read' of '_io.TextIOWrapper' objects}
     2330    0.001    0.000    0.001    0.000 {built-in method from_bytes}
        1    0.001    0.001    0.001    0.001 c:\Virtual_Environments\theeng\lib\site-packages\pymoo\util\reference_direction.py:236(<listcomp>)
     1084    0.001    0.000    0.001    0.000 c:\Virtual_Environments\theeng\lib\site-packages\_plotly_utils\utils.py:401(_rev)
  253/102    0.001    0.000    0.002    0.000 c:\Virtual_Environments\theeng\lib\site-packages\_plotly_utils\basevalidators.py:29(to_scalar_or_list)
      760    0.001    0.000    0.001    0.000 {method 'remove' of 'list' objects}
      529    0.001    0.000    0.001    0.000 {built-in method __FreeCADConsole__.PrintMessage}
       69    0.001    0.000    0.010    0.000 c:\Virtual_Environments\theeng\lib\site-packages\pymoo\core\duplicate.py:74(_do)
        1    0.001    0.001    0.001    0.001 c:\Virtual_Environments\theeng\lib\site-packages\plotly\graph_objs\_contourcarpet.py:5(Contourcarpet)
     2944    0.001    0.000    0.001    0.000 {built-in method numpy.geterrobj}
    67/50    0.001    0.000    0.918    0.018 c:\Virtual_Environments\theeng\lib\site-packages\plotly\basedatatypes.py:3832(_perform_update)
      268    0.001    0.000    0.004    0.000 c:\Virtual_Environments\theeng\lib\site-packages\pandas\core\frame.py:4257(_box_col_values)
      645    0.001    0.000    0.001    0.000 c:\Virtual_Environments\theeng\lib\site-packages\sklearn\base.py:375(_check_feature_names)
      145    0.001    0.000    0.002    0.000 c:\Virtual_Environments\theeng\lib\site-packages\pymoo\core\variable.py:77(get)
       39    0.001    0.000    0.001    0.000 {method 'outer' of 'numpy.ufunc' objects}
        1    0.001    0.001   29.509   29.509 c:\Virtual_Environments\theeng\lib\site-packages\theeng\core\sampler.py:71(_evaluate)
      214    0.001    0.000    0.001    0.000 C:\Python38\lib\ntpath.py:124(splitdrive)
      791    0.001    0.000    0.001    0.000 <frozen importlib._bootstrap>:342(__init__)
      159    0.001    0.000    0.002    0.000 {built-in method builtins.sorted}
      259    0.001    0.000    0.001    0.000 c:\Virtual_Environments\theeng\lib\site-packages\pymoo\core\population.py:152(interleaving_args)
      160    0.001    0.000    0.003    0.000 c:\Virtual_Environments\theeng\lib\site-packages\_plotly_utils\importers.py:4(relative_import)
      206    0.001    0.000    0.001    0.000 c:\Virtual_Environments\theeng\lib\site-packages\sklearn\utils\_available_if.py:25(__get__)
     1925    0.001    0.000    0.001    0.000 c:\Virtual_Environments\theeng\lib\site-packages\_plotly_utils\utils.py:307(<lambda>)
      815    0.001    0.000    0.001    0.000 c:\Virtual_Environments\theeng\lib\site-packages\plotly\basedatatypes.py:4356(_process_kwargs)
       23    0.001    0.000    0.371    0.016 C:\Engineering Programs\FreeCAD 0.20\Mod\Fem\femmesh\meshtools.py:1209(get_ref_facenodes_table)
  326/272    0.001    0.000    0.015    0.000 c:\Virtual_Environments\theeng\lib\site-packages\plotly\basedatatypes.py:4745(__contains__)
        4    0.001    0.000    0.003    0.001 c:\Virtual_Environments\theeng\lib\site-packages\pandas\core\sorting.py:109(get_group_index)
      283    0.001    0.000    0.001    0.000 c:\Virtual_Environments\theeng\lib\site-packages\_plotly_utils\basevalidators.py:178(is_homogeneous_array)
     1351    0.001    0.000    0.001    0.000 c:\Virtual_Environments\theeng\lib\site-packages\sklearn\utils\_array_api.py:70(asarray)
       80    0.001    0.000    0.447    0.006 c:\Virtual_Environments\theeng\lib\site-packages\plotly\basedatatypes.py:5302(_set_array_prop)
      402    0.001    0.000    0.001    0.000 c:\Virtual_Environments\theeng\lib\site-packages\_plotly_utils\basevalidators.py:233(__init__)
      200    0.001    0.000    0.101    0.001 c:\Virtual_Environments\theeng\lib\site-packages\pymoo\core\problem.py:18(__call__)
      256    0.001    0.000    0.001    0.000 c:\Virtual_Environments\theeng\lib\site-packages\pandas\io\formats\format.py:1468(base_formatter)
       46    0.001    0.000    0.027    0.001 C:\Engineering Programs\FreeCAD 0.20\Mod\Fem\femtools\membertools.py:159(__init__)
       92    0.001    0.000    0.001    0.000 C:\Python38\lib\ntpath.py:77(join)
     4197    0.001    0.000    0.001    0.000 c:\Virtual_Environments\theeng\lib\site-packages\pymoo\core\individual.py:80(X)
      667    0.001    0.000    0.001    0.000 c:\Virtual_Environments\theeng\lib\site-packages\sklearn\utils\validation.py:571(_ensure_no_complex_data)
       23    0.001    0.000   14.876    0.647 C:\Engineering Programs\FreeCAD 0.20\Mod\Fem\femtools\ccxtools.py:810(load_results)
      138    0.001    0.000   16.262    0.118 C:\Python38\lib\threading.py:1017(_wait_for_tstate_lock)
     1008    0.001    0.000    0.001    0.000 c:\Virtual_Environments\theeng\lib\site-packages\plotly\graph_objs\_layout.py:56(_subplot_re_match)
       69    0.001    0.000    0.117    0.002 C:\Python38\lib\subprocess.py:1353(_wait)
    95/21    0.001    0.000    0.001    0.000 C:\Python38\lib\sre_compile.py:71(_compile)
     2832    0.001    0.000    0.001    0.000 {built-in method nt.fspath}
     1401    0.001    0.000    0.001    0.000 c:\Virtual_Environments\theeng\lib\site-packages\scipy\sparse\_base.py:1301(isspmatrix)
       20    0.001    0.000    0.001    0.000 {pymoo.cython.calc_perpendicular_distance.calc_perpendicular_distance}
       23    0.001    0.000    0.814    0.035 C:\Engineering Programs\FreeCAD 0.20\Mod\Fem\femmesh\meshsetsgetter.py:120(get_mesh_sets)
       23    0.001    0.000    0.001    0.000 {method 'recompute' of 'App.DocumentObject' objects}
      225    0.001    0.000    0.004    0.000 c:\Virtual_Environments\theeng\lib\site-packages\pandas\core\algorithms.py:287(_check_object_for_strings)
       20    0.001    0.000    0.004    0.000 c:\Virtual_Environments\theeng\lib\site-packages\pymoo\algorithms\moo\nsga3.py:322(get_nadir_point)
     1249    0.001    0.000    0.003    0.000 c:\Virtual_Environments\theeng\lib\site-packages\plotly\basedatatypes.py:2518(layout)
       69    0.001    0.000   16.440    0.238 C:\Python38\lib\subprocess.py:984(communicate)
      446    0.001    0.000    0.006    0.000 c:\Virtual_Environments\theeng\lib\site-packages\theeng\core\problem.py:38(<lambda>)
  840/712    0.001    0.000    1.122    0.002 <frozen importlib._bootstrap>:211(_call_with_frames_removed)
       69    0.000    0.000    0.001    0.000 C:\Python38\lib\contextlib.py:482(__exit__)
      775    0.000    0.000    0.000    0.000 <frozen importlib._bootstrap_external>:1004(__init__)
      346    0.000    0.000    0.000    0.000 {method 'repeat' of 'numpy.ndarray' objects}
        3    0.000    0.000    0.229    0.076 c:\Virtual_Environments\theeng\lib\site-packages\plotly\offline\offline.py:46(get_plotlyjs)
  546/426    0.000    0.000    0.002    0.000 c:\Virtual_Environments\theeng\lib\site-packages\plotly\basedatatypes.py:4568(_prop_defaults)
     2376    0.000    0.000    0.000    0.000 {method 'pop' of 'list' objects}
       20    0.000    0.000    0.022    0.001 c:\Virtual_Environments\theeng\lib\site-packages\pymoo\algorithms\moo\nsga3.py:240(associate_to_niches)
       19    0.000    0.000    0.001    0.000 c:\Virtual_Environments\theeng\lib\site-packages\pandas\core\indexes\base.py:2381(is_unique)
       20    0.000    0.000    0.000    0.000 {pymoo.cython.non_dominated_sorting.fast_non_dominated_sort}
       23    0.000    0.000    0.365    0.016 C:\Engineering Programs\FreeCAD 0.20\Mod\Fem\femmesh\meshtools.py:111(get_femnodes_by_refshape)
  922/906    0.000    0.000    0.003    0.000 c:\Virtual_Environments\theeng\lib\site-packages\plotly\basedatatypes.py:4469(_init_props)
        1    0.000    0.000    0.000    0.000 c:\Virtual_Environments\theeng\lib\site-packages\plotly\graph_objs\_densitymapbox.py:5(Densitymapbox)
   1143/9    0.000    0.000    0.006    0.001 c:\Virtual_Environments\theeng\lib\site-packages\plotly\basedatatypes.py:5617(<genexpr>)
       23    0.000    0.000    0.366    0.016 C:\Engineering Programs\FreeCAD 0.20\Mod\Fem\femmesh\meshtools.py:95(get_femnodes_by_references)
       92    0.000    0.000    0.000    0.000 {built-in method time.process_time}
      711    0.000    0.000    0.002    0.000 c:\Virtual_Environments\theeng\lib\site-packages\plotly\basedatatypes.py:2414(_get_child_props)
      775    0.000    0.000    0.000    0.000 {built-in method _imp._fix_co_filename}
      406    0.000    0.000    0.000    0.000 c:\Virtual_Environments\theeng\lib\site-packages\pandas\core\flags.py:49(__init__)
     1012    0.000    0.000    0.027    0.000 C:\Engineering Programs\FreeCAD 0.20\Mod\Fem\femtools\membertools.py:325(get_several_member)
        9    0.000    0.000    0.002    0.000 c:\Virtual_Environments\theeng\lib\site-packages\pymoo\util\ref_dirs\energy.py:289(calc_potential_energy_with_grad)
 1302/285    0.000    0.000    0.004    0.000 c:\Virtual_Environments\theeng\lib\site-packages\plotly\basedatatypes.py:5610(<genexpr>)
       69    0.000    0.000    0.002    0.000 c:\Virtual_Environments\theeng\lib\site-packages\pandas\core\construction.py:493(sanitize_array)
       28    0.000    0.000    0.004    0.000 c:\Virtual_Environments\theeng\lib\site-packages\_plotly_utils\basevalidators.py:1621(<listcomp>)
       66    0.000    0.000    0.001    0.000 c:\Virtual_Environments\theeng\lib\site-packages\scipy\sparse\_sputils.py:147(get_index_dtype)
       20    0.000    0.000    0.116    0.006 c:\Virtual_Environments\theeng\lib\site-packages\pymoo\core\problem.py:239(_evaluate_elementwise)
      759    0.000    0.000    0.005    0.000 C:\Python38\lib\subprocess.py:191(Close)
     1084    0.000    0.000    0.000    0.000 c:\Virtual_Environments\theeng\lib\site-packages\_plotly_utils\utils.py:402(<listcomp>)
     1192    0.000    0.000    0.000    0.000 {method 'rsplit' of 'str' objects}
      897    0.000    0.000    0.004    0.000 C:\Engineering Programs\FreeCAD 0.20\Mod\Fem\femtools\femutils.py:87(is_of_type)
      170    0.000    0.000    0.010    0.000 <frozen importlib._bootstrap_external>:1590(path_hook_for_FileFinder)
      288    0.000    0.000    0.001    0.000 C:\Python38\lib\inspect.py:2489(__init__)
      224    0.000    0.000    0.001    0.000 c:\Virtual_Environments\theeng\lib\site-packages\pymoo\core\individual.py:17(__init__)
       13    0.000    0.000    0.002    0.000 c:\Virtual_Environments\theeng\lib\site-packages\pymoo\util\ref_dirs\misc.py:80(project_onto_unit_simplex_recursive)
       69    0.000    0.000    0.008    0.000 c:\Virtual_Environments\theeng\lib\site-packages\pymoo\core\duplicate.py:62(calc_dist)
       23    0.000    0.000    0.002    0.000 C:\Engineering Programs\FreeCAD 0.20\Mod\Fem\femsolver\calculix\write_footer.py:33(write_footer)
      335    0.000    0.000    0.001    0.000 c:\Virtual_Environments\theeng\lib\site-packages\pandas\core\internals\managers.py:1891(__init__)
      735    0.000    0.000    0.000    0.000 c:\Virtual_Environments\theeng\lib\site-packages\numpy\core\_ufunc_config.py:426(__init__)
     1192    0.000    0.000    0.003    0.000 c:\Virtual_Environments\theeng\lib\site-packages\pymoo\core\individual.py:215(feasible)
       69    0.000    0.000    0.000    0.000 {built-in method FreeCAD.Version}
      462    0.000    0.000    0.058    0.000 c:\Virtual_Environments\theeng\lib\site-packages\plotly\graph_objs\__init__.py:282(__getattr__)
      223    0.000    0.000    0.001    0.000 c:\Virtual_Environments\theeng\lib\site-packages\pandas\core\sorting.py:152(maybe_lift)
      207    0.000    0.000    0.000    0.000 {built-in method _winapi.DuplicateHandle}
      243    0.000    0.000    0.001    0.000 c:\Virtual_Environments\theeng\lib\site-packages\pandas\_config\config.py:116(_get_single_key)
       23    0.000    0.000    0.000    0.000 {method 'argsort' of 'numpy.ndarray' objects}
      475    0.000    0.000    0.000    0.000 {method 'reshape' of 'numpy.ndarray' objects}
      277    0.000    0.000    0.001    0.000 C:\Python38\lib\threading.py:1306(current_thread)
  937/907    0.000    0.000    0.001    0.000 c:\Virtual_Environments\theeng\lib\site-packages\plotly\basedatatypes.py:5152(_in_batch_mode)
       16    0.000    0.000    0.005    0.000 c:\Virtual_Environments\theeng\lib\site-packages\pandas\io\formats\format.py:1506(get_result_as_array)
  993/833    0.000    0.000    0.002    0.000 C:\Python38\lib\abc.py:100(__subclasscheck__)
      188    0.000    0.000    0.001    0.000 c:\Virtual_Environments\theeng\lib\site-packages\_plotly_utils\utils.py:269(key)
       99    0.000    0.000    0.001    0.000 c:\Virtual_Environments\theeng\lib\site-packages\_plotly_utils\basevalidators.py:2403(__init__)
      788    0.000    0.000    0.001    0.000 <frozen importlib._bootstrap>:800(find_spec)
       29    0.000    0.000    0.008    0.000 c:\Virtual_Environments\theeng\lib\site-packages\pymoo\core\mutation.py:16(do)
       23    0.000    0.000    0.006    0.000 C:\Engineering Programs\FreeCAD 0.20\Mod\Fem\femmesh\meshsetsgetter.py:985(get_mat_geo_sets_single_mat_solid)
       30    0.000    0.000    0.011    0.000 c:\Virtual_Environments\theeng\lib\site-packages\pymoo\core\duplicate.py:19(do)
      117    0.000    0.000    0.002    0.000 c:\Virtual_Environments\theeng\lib\site-packages\numpy\lib\twodim_base.py:1094(<genexpr>)
      138    0.000    0.000    0.001    0.000 C:\Python38\lib\threading.py:944(_stop)
        6    0.000    0.000    0.001    0.000 c:\Virtual_Environments\theeng\lib\site-packages\sklearn\utils\extmath.py:967(_incremental_mean_and_var)
      667    0.000    0.000    0.000    0.000 c:\Virtual_Environments\theeng\lib\site-packages\sklearn\utils\validation.py:581(_check_estimator_name)
      235    0.000    0.000    0.001    0.000 c:\Virtual_Environments\theeng\lib\site-packages\pandas\core\internals\managers.py:2065(external_values)
       20    0.000    0.000    0.008    0.000 c:\Virtual_Environments\theeng\lib\site-packages\pymoo\algorithms\moo\nsga3.py:277(update)
      223    0.000    0.000    0.021    0.000 c:\Virtual_Environments\theeng\lib\site-packages\pandas\core\frame.py:6781(f)
      446    0.000    0.000    0.001    0.000 c:\Virtual_Environments\theeng\lib\site-packages\pandas\core\indexes\range.py:956(__getitem__)
       93    0.000    0.000    0.000    0.000 {built-in method builtins.round}
        3    0.000    0.000    0.025    0.008 C:\Python38\lib\pathlib.py:1248(write_text)
     1892    0.000    0.000    0.001    0.000 c:\Virtual_Environments\theeng\lib\site-packages\pandas\io\formats\format.py:432(len)
       74    0.000    0.000    0.345    0.005 c:\Virtual_Environments\theeng\lib\site-packages\scipy\spatial\distance.py:2608(cdist)
       27    0.000    0.000    0.001    0.000 c:\Virtual_Environments\theeng\lib\site-packages\pymoo\util\ref_dirs\misc.py:4(project_onto)
       12    0.000    0.000    0.000    0.000 {pandas._libs.lib.map_infer}
      542    0.000    0.000    0.000    0.000 c:\Virtual_Environments\theeng\lib\site-packages\plotly\basedatatypes.py:77(_make_hyphen_key)
      276    0.000    0.000    0.030    0.000 C:\Engineering Programs\FreeCAD 0.20\Mod\Fem\femsolver\writerbase.py:150(write_constraints_meshsets)
      211    0.000    0.000    0.002    0.000 c:\Virtual_Environments\theeng\lib\site-packages\scipy\sparse\_csr.py:333(isspmatrix_csr)
      271    0.000    0.000    0.001    0.000 c:\Virtual_Environments\theeng\lib\site-packages\numpy\core\numeric.py:1878(isscalar)
      434    0.000    0.000    0.002    0.000 c:\Virtual_Environments\theeng\lib\site-packages\sklearn\utils\_set_output.py:99(_wrap_data_with_container)
       12    0.000    0.000    0.002    0.000 c:\Virtual_Environments\theeng\lib\site-packages\scipy\sparse\_dia.py:392(tocoo)
       23    0.000    0.000    0.367    0.016 C:\Engineering Programs\FreeCAD 0.20\Mod\Fem\femmesh\meshtools.py:36(get_femnodes_by_femobj_with_references)
      138    0.000    0.000    0.000    0.000 C:\Python38\lib\threading.py:734(_newname)
      352    0.000    0.000    0.001    0.000 c:\Virtual_Environments\theeng\lib\site-packages\pandas\core\dtypes\common.py:162(is_object_dtype)
      788    0.000    0.000    0.000    0.000 {built-in method _imp.is_frozen}
       10    0.000    0.000    0.183    0.018 c:\Virtual_Environments\theeng\lib\site-packages\plotly\graph_objs\_layout.py:5660(__init__)
       29    0.000    0.000    0.000    0.000 {pandas._libs.algos.ensure_object}
      256    0.000    0.000    0.001    0.000 c:\Virtual_Environments\theeng\lib\site-packages\numpy\core\numerictypes.py:356(issubdtype)
      389    0.000    0.000    0.001    0.000 c:\Virtual_Environments\theeng\lib\site-packages\numpy\core\fromnumeric.py:51(_wrapfunc)
       10    0.000    0.000    0.001    0.000 c:\Virtual_Environments\theeng\lib\site-packages\pandas\core\sorting.py:682(compress_group_index)
      196    0.000    0.000    0.000    0.000 {built-in method numpy.arange}
      542    0.000    0.000    0.000    0.000 c:\Virtual_Environments\theeng\lib\site-packages\plotly\basedatatypes.py:108(<lambda>)
      542    0.000    0.000    0.000    0.000 c:\Virtual_Environments\theeng\lib\site-packages\_plotly_utils\utils.py:411(_Chomper)
      263    0.000    0.000    0.001    0.000 c:\Virtual_Environments\theeng\lib\site-packages\pandas\core\dtypes\common.py:1278(is_bool_dtype)
       23    0.000    0.000    0.006    0.000 C:\Engineering Programs\FreeCAD 0.20\Mod\Fem\femtools\ccxtools.py:250(check_prerequisites)
      164    0.000    0.000    0.000    0.000 {method 'sort' of 'numpy.ndarray' objects}
      118    0.000    0.000    0.034    0.000 c:\Virtual_Environments\theeng\lib\site-packages\pymoo\core\operator.py:26(__call__)
      226    0.000    0.000    0.010    0.000 c:\Virtual_Environments\theeng\lib\site-packages\pandas\core\frame.py:6813(<genexpr>)
       46    0.000    0.000    0.029    0.001 C:\Engineering Programs\FreeCAD 0.20\Mod\Fem\femsolver\writerbase.py:163(constraint_sets_loop_writing)
       29    0.000    0.000    0.009    0.000 c:\Virtual_Environments\theeng\lib\site-packages\pymoo\operators\crossover\sbx.py:103(_do)
     2242    0.000    0.000    0.000    0.000 {built-in method _warnings._filters_mutated}
       46    0.000    0.000    0.000    0.000 {method 'getValueAs' of 'Base.Quantity' objects}
       20    0.000    0.000    0.101    0.005 c:\Virtual_Environments\theeng\lib\site-packages\pymoo\core\problem.py:27(<listcomp>)
      626    0.000    0.000    0.013    0.000 {built-in method builtins.next}
       64    0.000    0.000    0.003    0.000 C:\Python38\lib\inspect.py:2218(_signature_from_callable)
      207    0.000    0.000    0.001    0.000 C:\Python38\lib\subprocess.py:1206(_make_inheritable)
      155    0.000    0.000    0.013    0.000 c:\Virtual_Environments\theeng\lib\site-packages\numpy\core\fromnumeric.py:2703(amax)
      138    0.000    0.000    0.000    0.000 C:\Python38\lib\_weakrefset.py:81(add)
       20    0.000    0.000    0.083    0.004 c:\Virtual_Environments\theeng\lib\site-packages\pymoo\core\algorithm.py:202(advance)
      355    0.000    0.000    0.181    0.001 c:\Virtual_Environments\theeng\lib\site-packages\_plotly_utils\basevalidators.py:2442(data_class)
      539    0.000    0.000    0.002    0.000 c:\Virtual_Environments\theeng\lib\site-packages\pandas\core\construction.py:399(extract_array)
       64    0.000    0.000    0.004    0.000 c:\Virtual_Environments\theeng\lib\site-packages\sklearn\base.py:122(_get_param_names)
      327    0.000    0.000    0.001    0.000 C:\Python38\lib\copy.py:66(copy)
        6    0.000    0.000    0.000    0.000 {pandas._libs.lib.array_equivalent_object}
        7    0.000    0.000    0.001    0.000 c:\Virtual_Environments\theeng\lib\site-packages\pandas\core\internals\managers.py:774(_slice_take_blocks_ax0)
        2    0.000    0.000    1.011    0.505 c:\Virtual_Environments\theeng\lib\site-packages\plotly\express\_core.py:1986(make_figure)
       53    0.000    0.000    0.007    0.000 c:\Virtual_Environments\theeng\lib\site-packages\pandas\core\frame.py:3758(__getitem__)
       19    0.000    0.000    0.045    0.002 c:\Virtual_Environments\theeng\lib\site-packages\pymoo\core\infill.py:22(do)
       59    0.000    0.000    0.001    0.000 c:\Virtual_Environments\theeng\lib\site-packages\pandas\core\common.py:235(asarray_tuplesafe)
      647    0.000    0.000    0.000    0.000 {pandas._libs.lib.is_list_like}
       23    0.000    0.000    1.023    0.044 C:\Engineering Programs\FreeCAD 0.20\Mod\Fem\femsolver\calculix\write_mesh.py:35(write_mesh)
      223    0.000    0.000    0.000    0.000 c:\Virtual_Environments\theeng\lib\site-packages\theeng\core\problem.py:336(_testFloat)
      230    0.000    0.000    0.002    0.000 c:\Virtual_Environments\theeng\lib\site-packages\numpy\core\fromnumeric.py:2955(prod)
      332    0.000    0.000    0.001    0.000 c:\Virtual_Environments\theeng\lib\site-packages\pandas\core\dtypes\common.py:1246(is_float_dtype)
       70    0.000    0.000    0.000    0.000 c:\Virtual_Environments\theeng\lib\site-packages\_plotly_utils\basevalidators.py:695(__init__)
      138    0.000    0.000    0.002    0.000 C:\Python38\lib\threading.py:505(__init__)
       23    0.000    0.000    0.000    0.000 {built-in method GetInt}
      224    0.000    0.000    0.000    0.000 c:\Virtual_Environments\theeng\lib\site-packages\pymoo\core\individual.py:6(default_config)
        6    0.000    0.000    0.000    0.000 {built-in method pandas._libs.lib.is_datetime_array}
       23    0.000    0.000    0.013    0.001 C:\Engineering Programs\FreeCAD 0.20\Mod\Fem\femtools\ccxtools.py:308(setup_working_dir)
  213/165    0.000    0.000    0.007    0.000 c:\Virtual_Environments\theeng\lib\site-packages\plotly\basedatatypes.py:5826(__contains__)
      160    0.000    0.000    0.003    0.000 c:\Virtual_Environments\theeng\lib\site-packages\numpy\lib\arraysetops.py:138(unique)
      645    0.000    0.000    0.000    0.000 c:\Virtual_Environments\theeng\lib\site-packages\sklearn\utils\validation.py:1870(_get_feature_names)
       19    0.000    0.000    0.001    0.000 c:\Virtual_Environments\theeng\lib\site-packages\numpy\core\numeric.py:2359(within_tol)
      627    0.000    0.000    0.000    0.000 {built-in method builtins.vars}
       23    0.000    0.000    0.004    0.000 C:\Engineering Programs\FreeCAD 0.20\Mod\Fem\ObjectsFem.py:588(makeMeshResult)
        2    0.000    0.000    0.010    0.005 c:\Virtual_Environments\theeng\lib\site-packages\plotly\express\_core.py:1077(process_args_into_dataframe)
      200    0.000    0.000    0.006    0.000 c:\Virtual_Environments\theeng\lib\site-packages\theeng\core\optimizer.py:146(<listcomp>)
       23    0.000    0.000    0.009    0.000 C:\Python38\lib\tempfile.py:334(mkdtemp)
      149    0.000    0.000    0.001    0.000 c:\Virtual_Environments\theeng\lib\site-packages\_plotly_utils\basevalidators.py:754(validate_coerce)
      223    0.000    0.000    0.000    0.000 c:\Virtual_Environments\theeng\lib\site-packages\pandas\core\indexes\range.py:370(__contains__)
       46    0.000    0.000    0.000    0.000 C:\Engineering Programs\FreeCAD 0.20\Mod\Fem\femmesh\meshtools.py:2180(has_no_face_data)
       29    0.000    0.000    0.001    0.000 c:\Virtual_Environments\theeng\lib\site-packages\pymoo\operators\crossover\binx.py:8(mut_binomial)
      512    0.000    0.000    0.000    0.000 c:\Virtual_Environments\theeng\lib\site-packages\numpy\core\numerictypes.py:282(issubclass_)
      138    0.000    0.000    0.000    0.000 C:\Python38\lib\_weakrefset.py:38(_remove)
      339    0.000    0.000    0.000    0.000 c:\Virtual_Environments\theeng\lib\site-packages\pandas\core\flags.py:85(allows_duplicate_labels)
       10    0.000    0.000    0.000    0.000 {method 'get_labels_groupby' of 'pandas._libs.hashtable.Int64HashTable' objects}
      211    0.000    0.000    0.001    0.000 c:\Virtual_Environments\theeng\lib\site-packages\scipy\sparse\_csc.py:236(isspmatrix_csc)
       23    0.000    0.000    0.000    0.000 C:\Engineering Programs\FreeCAD 0.20\Mod\Fem\femsolver\calculix\write_step_equation.py:32(write_step_equation)
      345    0.000    0.000    0.001    0.000 <__array_function__ internals>:177(where)
       20    0.000    0.000    0.121    0.006 c:\Virtual_Environments\theeng\lib\site-packages\pymoo\core\evaluator.py:38(eval)
      243    0.000    0.000    0.000    0.000 c:\Virtual_Environments\theeng\lib\site-packages\pandas\_config\config.py:597(_get_root)
       44    0.000    0.000    0.005    0.000 c:\Virtual_Environments\theeng\lib\site-packages\pandas\core\frame.py:609(__init__)
     1360    0.000    0.000    0.000    0.000 <frozen importlib._bootstrap_external>:1465(<genexpr>)
        1    0.000    0.000    0.000    0.000 {method 'argmax' of 'numpy.ndarray' objects}
      792    0.000    0.000    0.000    0.000 {method 'insert' of 'list' objects}
       74    0.000    0.000    0.346    0.005 c:\Virtual_Environments\theeng\lib\site-packages\pymoo\util\misc.py:156(cdist)
       69    0.000    0.000    0.000    0.000 {built-in method _locale._getdefaultlocale}
       27    0.000    0.000    0.000    0.000 C:\Python38\lib\ntpath.py:180(split)
       46    0.000    0.000    0.000    0.000 {built-in method SetString}
    120/5    0.000    0.000    0.003    0.001 c:\Virtual_Environments\theeng\lib\site-packages\sklearn\base.py:34(clone)
      554    0.000    0.000    0.000    0.000 c:\Virtual_Environments\theeng\lib\site-packages\_plotly_utils\utils.py:415(__call__)
      131    0.000    0.000    0.001    0.000 c:\Virtual_Environments\theeng\lib\site-packages\_plotly_utils\basevalidators.py:576(in_values)
      646    0.000    0.000    0.000    0.000 C:\Python38\lib\inspect.py:72(isclass)
       69    0.000    0.000    0.000    0.000 {built-in method _winapi.GetExitCodeProcess}
      239    0.000    0.000    0.002    0.000 c:\Virtual_Environments\theeng\lib\site-packages\pandas\_config\config.py:134(_get_option)
      236    0.000    0.000    0.008    0.000 c:\Virtual_Environments\theeng\lib\site-packages\pandas\core\frame.py:1319(items)
      892    0.000    0.000    0.000    0.000 c:\Virtual_Environments\theeng\lib\site-packages\theeng\core\problem.py:271(<genexpr>)
      253    0.000    0.000    0.001    0.000 c:\Virtual_Environments\theeng\lib\site-packages\numpy\core\_dtype.py:330(_name_includes_bit_suffix)
        8    0.000    0.000    0.001    0.000 C:\Python38\lib\inspect.py:325(getmembers)
        9    0.000    0.000    0.004    0.000 c:\Virtual_Environments\theeng\lib\site-packages\pymoo\util\ref_dirs\energy.py:53(_step)
      660    0.000    0.000    0.001    0.000 c:\Virtual_Environments\theeng\lib\site-packages\autograd\numpy\numpy_wrapper.py:75(array_from_args)
      267    0.000    0.000    0.001    0.000 c:\Virtual_Environments\theeng\lib\site-packages\pandas\core\dtypes\common.py:501(is_categorical_dtype)
      626    0.000    0.000    0.000    0.000 c:\Virtual_Environments\theeng\lib\site-packages\pandas\core\indexes\base.py:925(__len__)
      175    0.000    0.000    0.002    0.000 c:\Virtual_Environments\theeng\lib\site-packages\numpy\core\fromnumeric.py:2333(any)
      225    0.000    0.000    0.009    0.000 c:\Virtual_Environments\theeng\lib\site-packages\pandas\core\algorithms.py:269(_get_hashtable_algo)
      480    0.000    0.000    0.000    0.000 c:\Virtual_Environments\theeng\lib\site-packages\pandas\_config\config.py:611(_get_deprecated_option)
      436    0.000    0.000    0.001    0.000 c:\Virtual_Environments\theeng\lib\site-packages\plotly\basedatatypes.py:2446(_get_child_prop_defaults)
      800    0.000    0.000    0.000    0.000 C:\Python38\lib\sre_parse.py:164(__getitem__)
       20    0.000    0.000    0.011    0.001 c:\Virtual_Environments\theeng\lib\site-packages\pymoo\core\survival.py:88(split_by_feasibility)
       23    0.000    0.000    0.005    0.000 C:\Python38\lib\codecs.py:871(open)
        1    0.000    0.000    0.001    0.001 c:\Virtual_Environments\theeng\lib\site-packages\pandas\core\algorithms.py:412(unique_with_mask)
      224    0.000    0.000    0.000    0.000 c:\Virtual_Environments\theeng\lib\site-packages\pymoo\core\individual.py:42(reset)
      175    0.000    0.000    0.002    0.000 <__array_function__ internals>:177(any)
       39    0.000    0.000    0.003    0.000 c:\Virtual_Environments\theeng\lib\site-packages\numpy\lib\twodim_base.py:1012(triu_indices)
        1    0.000    0.000    0.000    0.000 C:\Engineering Programs\FreeCAD 0.20\Mod\Fem\femsolver\calculix\solver.py:103(on_restore_of_document)
     1748    0.000    0.000    0.000    0.000 c:\Virtual_Environments\theeng\lib\site-packages\pymoo\core\individual.py:88(F)
      254    0.000    0.000    0.000    0.000 {pandas._libs.algos.ensure_int64}
      206    0.000    0.000    0.000    0.000 c:\Virtual_Environments\theeng\lib\site-packages\sklearn\pipeline.py:44(check)
      264    0.000    0.000    0.001    0.000 c:\Virtual_Environments\theeng\lib\site-packages\pandas\core\dtypes\common.py:684(is_integer_dtype)
        3    0.000    0.000    0.000    0.000 c:\Virtual_Environments\theeng\lib\site-packages\pymoo\algorithms\moo\nsga3.py:256(calc_niche_count)
       11    0.000    0.000    0.000    0.000 {pandas._libs.lib.infer_datetimelike_array}
       29    0.000    0.000    0.032    0.001 c:\Virtual_Environments\theeng\lib\site-packages\pymoo\core\mating.py:19(_do)
        3    0.000    0.000    0.000    0.000 {method 'shuffle' of 'numpy.random._generator.Generator' objects}
      223    0.000    0.000    0.000    0.000 c:\Virtual_Environments\theeng\lib\site-packages\pandas\core\indexes\range.py:385(get_loc)
       28    0.000    0.000    0.005    0.000 c:\Virtual_Environments\theeng\lib\site-packages\pandas\core\indexes\base.py:708(_with_infer)
      289    0.000    0.000    0.001    0.000 c:\Virtual_Environments\theeng\lib\site-packages\pandas\core\dtypes\base.py:286(is_dtype)
     1806    0.000    0.000    0.000    0.000 c:\Virtual_Environments\theeng\lib\site-packages\_plotly_utils\basevalidators.py:2490(present)
       88    0.000    0.000    0.002    0.000 c:\Virtual_Environments\theeng\lib\site-packages\plotly\basedatatypes.py:5904(__init__)
        2    0.000    0.000    0.000    0.000 {numpy.random.mtrand.seed}
      538    0.000    0.000    0.000    0.000 C:\Python38\lib\sre_parse.py:233(__next)
       29    0.000    0.000    0.001    0.000 c:\Virtual_Environments\theeng\lib\site-packages\pymoo\operators\repair\to_bound.py:7(set_to_bounds_if_outside)
      203    0.000    0.000    0.001    0.000 <__array_function__ internals>:177(concatenate)
      592    0.000    0.000    0.000    0.000 c:\Virtual_Environments\theeng\lib\site-packages\_plotly_utils\basevalidators.py:202(is_simple_array)
       20    0.000    0.000    0.001    0.000 c:\Virtual_Environments\theeng\lib\site-packages\pymoo\util\nds\non_dominated_sorting.py:54(rank_from_fronts)
       40    0.000    0.000    0.008    0.000 c:\Virtual_Environments\theeng\lib\site-packages\pymoo\util\function_loader.py:6(get_functions)
       23    0.000    0.000    0.000    0.000 {built-in method currentPath}
       69    0.000    0.000    0.005    0.000 C:\Python38\lib\genericpath.py:39(isdir)
       16    0.000    0.000    0.001    0.000 c:\Virtual_Environments\theeng\lib\site-packages\pandas\io\formats\format.py:2005(<listcomp>)
      406    0.000    0.000    0.000    0.000 c:\Virtual_Environments\theeng\lib\site-packages\_plotly_utils\basevalidators.py:170(is_numpy_convertable)
        8    0.000    0.000    0.000    0.000 {pandas._libs.algos.take_1d_int64_int64}
       73    0.000    0.000    0.001    0.000 c:\Virtual_Environments\theeng\lib\site-packages\pandas\core\internals\blocks.py:2172(new_block)
       29    0.000    0.000    0.009    0.000 c:\Virtual_Environments\theeng\lib\site-packages\pymoo\core\selection.py:17(do)
    70/13    0.000    0.000    0.710    0.055 c:\Virtual_Environments\theeng\lib\site-packages\plotly\basedatatypes.py:5833(__setitem__)
      150    0.000    0.000    0.000    0.000 c:\Virtual_Environments\theeng\lib\site-packages\pandas\core\indexes\base.py:5304(__getitem__)
      135    0.000    0.000    0.001    0.000 c:\Virtual_Environments\theeng\lib\site-packages\pandas\core\series.py:661(name)
       20    0.000    0.000    0.078    0.004 c:\Virtual_Environments\theeng\lib\site-packages\pymoo\core\survival.py:19(do)
      383    0.000    0.000    0.000    0.000 {method 'title' of 'str' objects}
       23    0.000    0.000    0.001    0.000 C:\Engineering Programs\FreeCAD 0.20\Mod\Fem\femsolver\calculix\write_step_output.py:29(write_step_output)
  447/423    0.000    0.000    0.001    0.000 c:\Virtual_Environments\theeng\lib\site-packages\plotly\basedatatypes.py:5635(_send_prop_set)
       30    0.000    0.000    0.003    0.000 c:\Virtual_Environments\theeng\lib\site-packages\pymoo\core\population.py:97(new)
   114/40    0.000    0.000    0.000    0.000 C:\Python38\lib\sre_parse.py:174(getwidth)
      268    0.000    0.000    0.001    0.000 c:\Virtual_Environments\theeng\lib\site-packages\pandas\core\series.py:1267(_set_as_cached)
       64    0.000    0.000    0.000    0.000 C:\Python38\lib\inspect.py:2772(__init__)
      330    0.000    0.000    0.000    0.000 C:\Python38\lib\enum.py:313(__call__)
      217    0.000    0.000    0.001    0.000 <__array_function__ internals>:177(may_share_memory)
      461    0.000    0.000    0.001    0.000 c:\Virtual_Environments\theeng\lib\site-packages\_plotly_utils\utils.py:14(cumsum)
      542    0.000    0.000    0.000    0.000 c:\Virtual_Environments\theeng\lib\site-packages\_plotly_utils\utils.py:412(__init__)
      554    0.000    0.000    0.000    0.000 c:\Virtual_Environments\theeng\lib\site-packages\plotly\basedatatypes.py:86(_make_underscore_key)
      337    0.000    0.000    0.001    0.000 c:\Virtual_Environments\theeng\lib\site-packages\pandas\core\dtypes\missing.py:191(_isna)
       20    0.000    0.000    0.000    0.000 c:\Virtual_Environments\theeng\lib\site-packages\pymoo\core\evaluator.py:59(<listcomp>)
       23    0.000    0.000    0.000    0.000 C:\Engineering Programs\FreeCAD 0.20\Mod\Fem\femtools\membertools.py:131(get_mesh_to_solve)
      640    0.000    0.000    0.000    0.000 c:\Virtual_Environments\theeng\lib\site-packages\pandas\io\formats\format.py:1928(just)
      230    0.000    0.000    0.003    0.000 <__array_function__ internals>:177(prod)
       46    0.000    0.000    0.000    0.000 C:\Python38\lib\genericpath.py:121(_splitext)
      129    0.000    0.000    0.002    0.000 c:\Virtual_Environments\theeng\lib\site-packages\pymoo\core\population.py:92(empty)
      554    0.000    0.000    0.000    0.000 c:\Virtual_Environments\theeng\lib\site-packages\_plotly_utils\utils.py:19(_reducer)
       39    0.000    0.000    0.000    0.000 c:\Virtual_Environments\theeng\lib\site-packages\numpy\core\numeric.py:1691(indices)
      191    0.000    0.000    0.003    0.000 c:\Virtual_Environments\theeng\lib\site-packages\plotly\basedatatypes.py:5632(__init__)
      272    0.000    0.000    0.000    0.000 c:\Virtual_Environments\theeng\lib\site-packages\pandas\core\internals\blocks.py:827(iget)
      155    0.000    0.000    0.014    0.000 <__array_function__ internals>:177(amax)
      175    0.000    0.000    0.007    0.000 c:\Virtual_Environments\theeng\lib\site-packages\_plotly_utils\basevalidators.py:1339(validate_coerce)
        1    0.000    0.000    0.000    0.000 {pandas._libs.lib.indices_fast}
    32/30    0.000    0.000    0.000    0.000 c:\Virtual_Environments\theeng\lib\site-packages\_plotly_utils\basevalidators.py:55(copy_to_readonly_numpy_array)
       10    0.000    0.000    0.000    0.000 {pandas._libs.algos.take_2d_axis1_float64_float64}
      115    0.000    0.000    0.000    0.000 C:\Python38\lib\subprocess.py:166(__init__)
       67    0.000    0.000    0.000    0.000 c:\Virtual_Environments\theeng\lib\site-packages\numpy\core\shape_base.py:81(atleast_2d)
      138    0.000    0.000    0.000    0.000 C:\Python38\lib\threading.py:1177(_make_invoke_excepthook)
      132    0.000    0.000    0.000    0.000 c:\Virtual_Environments\theeng\lib\site-packages\numpy\core\getlimits.py:668(__init__)
      512    0.000    0.000    0.001    0.000 c:\Virtual_Environments\theeng\lib\site-packages\pandas\io\formats\format.py:1987(is_number_with_decimal)
       10    0.000    0.000    0.012    0.001 c:\Virtual_Environments\theeng\lib\site-packages\plotly\graph_objs\_scatter.py:2695(__init__)
      200    0.000    0.000    0.000    0.000 c:\Virtual_Environments\theeng\lib\site-packages\theeng\core\optimizer.py:143(<dictcomp>)
        1    0.000    0.000    0.036    0.036 c:\Virtual_Environments\theeng\lib\site-packages\theeng\core\surrogate.py:74(_train)
       46    0.000    0.000    0.001    0.000 C:\Python38\lib\ntpath.py:203(splitext)
      483    0.000    0.000    0.000    0.000 c:\Virtual_Environments\theeng\lib\site-packages\pandas\core\dtypes\common.py:319(is_datetime64_dtype)
      175    0.000    0.000    0.007    0.000 c:\Virtual_Environments\theeng\lib\site-packages\_plotly_utils\basevalidators.py:1401(vc_scalar)
       90    0.000    0.000    0.000    0.000 {method 'copy' of 'numpy.ndarray' objects}
       23    0.000    0.000    0.012    0.001 C:\Engineering Programs\FreeCAD 0.20\Mod\Fem\ObjectsFem.py:603(makeResultMechanical)
       30    0.000    0.000    0.000    0.000 c:\Virtual_Environments\theeng\lib\site-packages\pymoo\core\repair.py:9(<listcomp>)
      900    0.000    0.000    0.000    0.000 c:\Virtual_Environments\theeng\lib\site-packages\numpy\core\fromnumeric.py:2183(_sum_dispatcher)
        1    0.000    0.000    0.000    0.000 {built-in method nt.unlink}
      577    0.000    0.000    0.000    0.000 {built-in method builtins.sum}
        2    0.000    0.000    0.000    0.000 c:\Virtual_Environments\theeng\lib\site-packages\theeng\core\abstract.py:10(__init__)
      160    0.000    0.000    0.000    0.000 {method 'flatten' of 'numpy.ndarray' objects}
      192    0.000    0.000    0.000    0.000 C:\Python38\lib\random.py:250(_randbelow_with_getrandbits)
      706    0.000    0.000    0.000    0.000 c:\Virtual_Environments\theeng\lib\site-packages\pandas\core\dtypes\common.py:148(<lambda>)
      680    0.000    0.000    0.000    0.000 c:\Virtual_Environments\theeng\lib\site-packages\pandas\io\formats\format.py:1919(<genexpr>)
      131    0.000    0.000    0.002    0.000 c:\Virtual_Environments\theeng\lib\site-packages\_plotly_utils\basevalidators.py:593(validate_coerce)
       16    0.000    0.000    0.001    0.000 c:\Virtual_Environments\theeng\lib\site-packages\pandas\io\formats\format.py:1998(<listcomp>)
       14    0.000    0.000    0.002    0.000 c:\Virtual_Environments\theeng\lib\site-packages\pandas\core\internals\construction.py:272(ndarray_to_mgr)
        1    0.000    0.000    0.000    0.000 {method 'unique' of 'pandas._libs.hashtable.UInt8HashTable' objects}
       29    0.000    0.000    0.009    0.000 c:\Virtual_Environments\theeng\lib\site-packages\pymoo\operators\selection\tournament.py:37(_do)
       20    0.000    0.000    0.117    0.006 c:\Virtual_Environments\theeng\lib\site-packages\pymoo\core\problem.py:165(evaluate)
       38    0.000    0.000    0.001    0.000 c:\Virtual_Environments\theeng\lib\site-packages\pandas\core\indexes\base.py:7396(_maybe_cast_data_without_dtype)
       64    0.000    0.000    0.000    0.000 c:\Virtual_Environments\theeng\lib\site-packages\sklearn\base.py:136(<listcomp>)
  487/481    0.000    0.000    0.000    0.000 c:\Virtual_Environments\theeng\lib\site-packages\plotly\basedatatypes.py:5890(_send_prop_set)
       12    0.000    0.000    0.000    0.000 {scipy.special._comb._comb_int}
       13    0.000    0.000    0.000    0.000 c:\Virtual_Environments\theeng\lib\site-packages\numpy\lib\function_base.py:5250(insert)
      253    0.000    0.000    0.009    0.000 C:\Engineering Programs\FreeCAD 0.20\Mod\Fem\femsolver\writerbase.py:192(write_constraints_propdata)
      114    0.000    0.000    0.000    0.000 {method 'shuffle' of 'numpy.random.mtrand.RandomState' objects}
       20    0.000    0.000    0.120    0.006 c:\Virtual_Environments\theeng\lib\site-packages\pymoo\core\evaluator.py:84(_eval)
       64    0.000    0.000    0.004    0.000 c:\Virtual_Environments\theeng\lib\site-packages\sklearn\base.py:153(get_params)
      788    0.000    0.000    0.000    0.000 <frozen importlib._bootstrap>:725(find_spec)
       69    0.000    0.000    0.000    0.000 C:\Python38\lib\_bootlocale.py:11(getpreferredencoding)
      261    0.000    0.000    0.002    0.000 c:\Virtual_Environments\theeng\lib\site-packages\pymoo\core\population.py:67(<listcomp>)
       46    0.000    0.000    0.000    0.000 C:\Python38\lib\subprocess.py:175(copy)
      102    0.000    0.000    0.000    0.000 c:\Virtual_Environments\theeng\lib\site-packages\pandas\core\internals\blocks.py:2120(get_block_type)
      112    0.000    0.000    0.000    0.000 c:\Virtual_Environments\theeng\lib\site-packages\pandas\core\internals\blocks.py:2091(maybe_coerce_values)
        1    0.000    0.000    0.001    0.001 c:\Virtual_Environments\theeng\lib\site-packages\plotly\graph_objs\_layout.py:5(Layout)
      200    0.000    0.000    0.003    0.000 c:\Virtual_Environments\theeng\lib\site-packages\theeng\core\optimizer.py:147(<listcomp>)
      168    0.000    0.000    0.002    0.000 c:\Virtual_Environments\theeng\lib\site-packages\plotly\basedatatypes.py:5887(__init__)
    48/21    0.000    0.000    0.003    0.000 C:\Python38\lib\sre_parse.py:435(_parse_sub)
       20    0.000    0.000    0.000    0.000 c:\Virtual_Environments\theeng\lib\site-packages\pymoo\util\misc.py:344(intersect)
      554    0.000    0.000    0.000    0.000 c:\Virtual_Environments\theeng\lib\site-packages\plotly\basedatatypes.py:117(<lambda>)
      159    0.000    0.000    0.008    0.000 c:\Virtual_Environments\theeng\lib\site-packages\plotly\basedatatypes.py:5858(__setattr__)
      138    0.000    0.000    0.000    0.000 {built-in method msvcrt.open_osfhandle}
      223    0.000    0.000    0.003    0.000 c:\Virtual_Environments\theeng\lib\site-packages\theeng\core\problem.py:57(<lambda>)
    49/47    0.000    0.000    0.001    0.000 c:\Virtual_Environments\theeng\lib\site-packages\pandas\core\indexes\base.py:5464(equals)
      184    0.000    0.000    0.015    0.000 c:\Virtual_Environments\theeng\lib\site-packages\plotly\graph_objects\__init__.py:282(__getattr__)
       69    0.000    0.000    0.000    0.000 C:\Python38\lib\subprocess.py:1215(_filter_handle_list)
      285    0.000    0.000    0.001    0.000 {method 'any' of 'numpy.ndarray' objects}
       93    0.000    0.000    0.000    0.000 c:\Virtual_Environments\theeng\lib\site-packages\pandas\core\internals\managers.py:2058(dtype)
        3    0.000    0.000    0.000    0.000 c:\Virtual_Environments\theeng\lib\site-packages\pandas\core\internals\ops.py:89(_reset_block_mgr_locs)
      207    0.000    0.000    0.000    0.000 C:\Python38\lib\contextlib.py:463(_push_exit_callback)
       78    0.000    0.000    0.001    0.000 c:\Virtual_Environments\theeng\lib\site-packages\pandas\core\series.py:565(_set_axis)
      173    0.000    0.000    0.007    0.000 <frozen importlib._bootstrap_external>:159(_path_isdir)
       38    0.000    0.000    0.000    0.000 c:\Virtual_Environments\theeng\lib\site-packages\numpy\lib\twodim_base.py:162(eye)
       75    0.000    0.000    0.000    0.000 C:\Python38\lib\contextlib.py:82(__init__)
      314    0.000    0.000    0.000    0.000 c:\Virtual_Environments\theeng\lib\site-packages\pandas\core\dtypes\inference.py:188(is_array_like)
      192    0.000    0.000    0.000    0.000 C:\Python38\lib\random.py:285(choice)
       23    0.000    0.000    0.001    0.000 C:\Engineering Programs\FreeCAD 0.20\Mod\Fem\femtools\ccxtools.py:207(find_solver)
       69    0.000    0.000    0.117    0.002 C:\Python38\lib\subprocess.py:1078(wait)
      178    0.000    0.000    0.000    0.000 {built-in method numpy.zeros}
       21    0.000    0.000    0.000    0.000 c:\Virtual_Environments\theeng\lib\site-packages\pandas\core\indexing.py:139(iloc)
      138    0.000    0.000    0.000    0.000 C:\Python38\lib\threading.py:258(_acquire_restore)
     1010    0.000    0.000    0.000    0.000 c:\Virtual_Environments\theeng\lib\site-packages\plotly\basedatatypes.py:4376(plotly_name)
      148    0.000    0.000    0.001    0.000 c:\Virtual_Environments\theeng\lib\site-packages\pymoo\core\population.py:8(__new__)
       29    0.000    0.000    0.005    0.000 c:\Virtual_Environments\theeng\lib\site-packages\pymoo\operators\mutation\pm.py:81(_do)
      775    0.000    0.000    0.000    0.000 <frozen importlib._bootstrap_external>:1029(get_filename)
      205    0.000    0.000    0.026    0.000 c:\Virtual_Environments\theeng\lib\site-packages\sklearn\linear_model\_base.py:340(predict)
       16    0.000    0.000    0.001    0.000 c:\Virtual_Environments\theeng\lib\site-packages\pandas\io\formats\format.py:1515(<listcomp>)
      235    0.000    0.000    0.000    0.000 c:\Virtual_Environments\theeng\lib\site-packages\pandas\core\internals\blocks.py:2370(external_values)
      180    0.000    0.000    0.001    0.000 c:\Virtual_Environments\theeng\lib\site-packages\_plotly_utils\basevalidators.py:338(present)
      351    0.000    0.000    0.000    0.000 c:\Virtual_Environments\theeng\lib\site-packages\pandas\core\dtypes\inference.py:325(is_hashable)
     1138    0.000    0.000    0.000    0.000 {pandas._libs.lib.is_integer}
      135    0.000    0.000    0.001    0.000 c:\Virtual_Environments\theeng\lib\site-packages\pandas\core\indexes\base.py:7372(maybe_extract_name)
      706    0.000    0.000    0.000    0.000 c:\Virtual_Environments\theeng\lib\site-packages\pandas\core\dtypes\common.py:146(classes)
       23    0.000    0.000    0.000    0.000 C:\Engineering Programs\FreeCAD 0.20\Mod\Fem\femsolver\calculix\write_femelement_matgeosets.py:32(write_femelement_matgeosets)
        9    0.000    0.000    0.000    0.000 c:\Virtual_Environments\theeng\lib\site-packages\pymoo\util\ref_dirs\optimizer.py:44(_next)
      329    0.000    0.000    0.001    0.000 c:\Virtual_Environments\theeng\lib\site-packages\pandas\core\frame.py:1498(__len__)
      160    0.000    0.000    0.003    0.000 <__array_function__ internals>:177(unique)
      473    0.000    0.000    0.000    0.000 c:\Virtual_Environments\theeng\lib\site-packages\pandas\core\dtypes\common.py:393(is_timedelta64_dtype)
       20    0.000    0.000    0.008    0.000 c:\Virtual_Environments\theeng\lib\site-packages\pandas\io\formats\format.py:1252(format_array)
       40    0.000    0.000    0.002    0.000 c:\Virtual_Environments\theeng\lib\site-packages\pandas\io\formats\format.py:1904(_make_fixed_width)
        8    0.000    0.000    0.025    0.003 c:\Virtual_Environments\theeng\lib\site-packages\plotly\graph_objs\layout\_xaxis.py:3154(__init__)
       46    0.000    0.000    0.000    0.000 C:\Engineering Programs\FreeCAD 0.20\Mod\Fem\femmesh\meshtools.py:2171(is_solid_femmesh)
      442    0.000    0.000    0.000    0.000 C:\Python38\lib\sre_parse.py:254(get)
        3    0.000    0.000    0.226    0.075 c:\Virtual_Environments\theeng\lib\site-packages\plotly\_subplots.py:45(make_subplots)
      554    0.000    0.000    0.000    0.000 c:\Virtual_Environments\theeng\lib\site-packages\_plotly_utils\utils.py:330(<lambda>)
       69    0.000    0.000    0.000    0.000 C:\Python38\lib\contextlib.py:385(__init__)
       29    0.000    0.000    0.001    0.000 c:\Virtual_Environments\theeng\lib\site-packages\pymoo\core\crossover.py:31(<listcomp>)
      129    0.000    0.000    0.001    0.000 c:\Virtual_Environments\theeng\lib\site-packages\pymoo\core\population.py:94(<listcomp>)
        8    0.000    0.000    0.020    0.002 c:\Virtual_Environments\theeng\lib\site-packages\plotly\graph_objs\layout\_yaxis.py:3087(__init__)
       47    0.000    0.000    0.004    0.000 C:\Python38\lib\genericpath.py:27(isfile)
      138    0.000    0.000    0.000    0.000 C:\Python38\lib\threading.py:1110(daemon)
      170    0.000    0.000    0.000    0.000 c:\Virtual_Environments\theeng\lib\site-packages\pandas\core\series.py:611(name)
       79    0.000    0.000    0.000    0.000 {method '__deepcopy__' of 'numpy.ndarray' objects}
        8    0.000    0.000    0.000    0.000 {built-in method builtins.eval}
       11    0.000    0.000    0.000    0.000 c:\Virtual_Environments\theeng\lib\site-packages\pandas\core\indexers\utils.py:243(maybe_convert_indices)
      131    0.000    0.000    0.000    0.000 c:\Virtual_Environments\theeng\lib\site-packages\_plotly_utils\basevalidators.py:503(perform_replacemenet)
       65    0.000    0.000    0.000    0.000 c:\Virtual_Environments\theeng\lib\site-packages\pandas\core\indexes\base.py:690(_simple_new)
      154    0.000    0.000    0.000    0.000 C:\Python38\lib\threading.py:249(__exit__)
      276    0.000    0.000    0.000    0.000 C:\Python38\lib\threading.py:1095(daemon)
       69    0.000    0.000    0.000    0.000 C:\Python38\lib\subprocess.py:939(__del__)
      781    0.000    0.000    0.000    0.000 <frozen importlib._bootstrap>:397(has_location)
       31    0.000    0.000    0.000    0.000 C:\Python38\lib\sre_compile.py:276(_optimize_charset)
      174    0.000    0.000    0.001    0.000 <__array_function__ internals>:177(repeat)
      344    0.000    0.000    0.000    0.000 {method 'clear' of 'dict' objects}
      412    0.000    0.000    0.000    0.000 {built-in method builtins.repr}
       21    0.000    0.000    0.005    0.000 C:\Python38\lib\sre_compile.py:759(compile)
       23    0.000    0.000    0.000    0.000 {method 'setPropertyStatus' of 'App.PropertyContainer' objects}
        1    0.000    0.000    0.001    0.001 c:\Virtual_Environments\theeng\lib\site-packages\pymoo\core\initialization.py:21(do)
        1    0.000    0.000    0.739    0.739 c:\Virtual_Environments\theeng\lib\site-packages\theeng\core\optimizer.py:22(optimize)
       35    0.000    0.000    0.000    0.000 c:\Virtual_Environments\theeng\lib\site-packages\_plotly_utils\basevalidators.py:2513(__init__)
      237    0.000    0.000    0.002    0.000 c:\Virtual_Environments\theeng\lib\site-packages\pandas\_config\config.py:262(__call__)
       40    0.000    0.000    0.001    0.000 c:\Virtual_Environments\theeng\lib\site-packages\pandas\io\formats\format.py:1934(<listcomp>)
       38    0.000    0.000    0.000    0.000 C:\Python38\lib\os.py:670(__getitem__)
      223    0.000    0.000    0.000    0.000 c:\Virtual_Environments\theeng\lib\site-packages\pandas\core\dtypes\common.py:116(ensure_python_int)
       46    0.000    0.000    0.000    0.000 {built-in method FreeCAD.getHomePath}
      154    0.000    0.000    0.000    0.000 C:\Python38\lib\threading.py:246(__enter__)
       58    0.000    0.000    0.000    0.000 c:\Virtual_Environments\theeng\lib\site-packages\_plotly_utils\basevalidators.py:1281(__init__)
        5    0.000    0.000    0.000    0.000 C:\Python38\lib\json\decoder.py:343(raw_decode)
      448    0.000    0.000    0.000    0.000 {built-in method _operator.sub}
        1    0.000    0.000    0.000    0.000 c:\Virtual_Environments\theeng\lib\site-packages\pymoo\util\reference_direction.py:195(map_onto_unit_simplex)
      360    0.000    0.000    0.000    0.000 c:\Virtual_Environments\theeng\lib\site-packages\_plotly_utils\basevalidators.py:209(is_array)
      235    0.000    0.000    0.001    0.000 c:\Virtual_Environments\theeng\lib\site-packages\pandas\core\series.py:666(values)
       75    0.000    0.000    0.012    0.000 C:\Python38\lib\contextlib.py:117(__exit__)
       12    0.000    0.000    0.002    0.000 c:\Virtual_Environments\theeng\lib\site-packages\scipy\sparse\_coo.py:372(tocsr)
       24    0.000    0.000    0.001    0.000 C:\Python38\lib\tempfile.py:144(__next__)
       16    0.000    0.000    0.005    0.000 c:\Virtual_Environments\theeng\lib\site-packages\plotly\graph_objs\parcoords\_dimension.py:434(__init__)
      235    0.000    0.000    0.000    0.000 c:\Virtual_Environments\theeng\lib\site-packages\pandas\core\internals\blocks.py:196(external_values)
      717    0.000    0.000    0.000    0.000 {built-in method builtins.hash}
      207    0.000    0.000    0.001    0.000 C:\Python38\lib\contextlib.py:381(_exit_wrapper)
       30    0.000    0.000    0.001    0.000 C:\Python38\lib\warnings.py:130(filterwarnings)
       54    0.000    0.000    0.000    0.000 c:\Virtual_Environments\theeng\lib\site-packages\pandas\core\construction.py:744(_try_cast)
       69    0.000    0.000    0.002    0.000 c:\Virtual_Environments\theeng\lib\site-packages\plotly\basedatatypes.py:4582(_get_prop_validator)
       39    0.000    0.000    0.001    0.000 c:\Virtual_Environments\theeng\lib\site-packages\numpy\lib\twodim_base.py:376(tri)
      180    0.000    0.000    0.000    0.000 c:\Virtual_Environments\theeng\lib\site-packages\pandas\core\internals\managers.py:2069(internal_values)
        2    0.000    0.000    0.012    0.006 c:\Virtual_Environments\theeng\lib\site-packages\pandas\io\formats\format.py:847(_get_strcols_without_index)
       20    0.000    0.000    0.117    0.006 c:\Virtual_Environments\theeng\lib\site-packages\pymoo\core\problem.py:220(do)
       28    0.000    0.000    0.003    0.000 c:\Virtual_Environments\theeng\lib\site-packages\_plotly_utils\basevalidators.py:1638(<listcomp>)
       19    0.000    0.000    0.000    0.000 c:\Virtual_Environments\theeng\lib\site-packages\pandas\core\indexes\base.py:881(_engine)
      373    0.000    0.000    0.000    0.000 c:\Virtual_Environments\theeng\lib\site-packages\pandas\core\dtypes\common.py:1556(get_dtype)
      261    0.000    0.000    0.001    0.000 c:\Virtual_Environments\theeng\lib\site-packages\pandas\core\dtypes\missing.py:357(notna)
       79    0.000    0.000    0.001    0.000 {method 'sum' of 'numpy.ndarray' objects}
       40    0.000    0.000    0.046    0.001 c:\Virtual_Environments\theeng\lib\site-packages\pymoo\util\function_loader.py:70(load)
       19    0.000    0.000    0.001    0.000 c:\Virtual_Environments\theeng\lib\site-packages\numpy\core\numeric.py:2278(isclose)
        1    0.000    0.000    0.001    0.001 C:\Python38\lib\tempfile.py:177(_get_default_tempdir)
       73    0.000    0.000    0.000    0.000 c:\Virtual_Environments\theeng\lib\site-packages\numpy\core\fromnumeric.py:1249(argmin)
       20    0.000    0.000    0.000    0.000 c:\Virtual_Environments\theeng\lib\site-packages\pymoo\core\problem.py:264(_format_dict)
        5    0.000    0.000    0.024    0.005 c:\Virtual_Environments\theeng\lib\site-packages\plotly\graph_objs\_heatmap.py:2376(__init__)
       13    0.000    0.000    0.003    0.000 c:\Virtual_Environments\theeng\lib\site-packages\pandas\core\indexes\base.py:6844(insert)
       18    0.000    0.000    0.001    0.000 c:\Virtual_Environments\theeng\lib\site-packages\sklearn\utils\_param_validation.py:28(validate_parameter_constraints)
      366    0.000    0.000    0.000    0.000 c:\Virtual_Environments\theeng\lib\site-packages\pandas\core\internals\managers.py:2433(_using_copy_on_write)
       18    0.000    0.000    0.010    0.001 c:\Virtual_Environments\theeng\lib\site-packages\pandas\io\formats\format.py:894(format_col)
      639    0.000    0.000    0.000    0.000 c:\Virtual_Environments\theeng\lib\site-packages\pymoo\core\individual.py:84(X)
       20    0.000    0.000    0.028    0.001 c:\Virtual_Environments\theeng\lib\site-packages\pymoo\util\nds\non_dominated_sorting.py:14(do)
       78    0.000    0.000    0.001    0.000 c:\Virtual_Environments\theeng\lib\site-packages\sklearn\utils\_param_validation.py:103(make_constraint)
       10    0.000    0.000    0.002    0.000 c:\Virtual_Environments\theeng\lib\site-packages\pandas\core\apply.py:1159(apply_standard)
       95    0.000    0.000    0.001    0.000 c:\Virtual_Environments\theeng\lib\site-packages\numpy\core\numeric.py:150(ones)
      158    0.000    0.000    0.002    0.000 <__array_function__ internals>:177(tile)
      352    0.000    0.000    0.000    0.000 C:\Python38\lib\inspect.py:2821(<genexpr>)
      174    0.000    0.000    0.001    0.000 c:\Virtual_Environments\theeng\lib\site-packages\numpy\core\fromnumeric.py:436(repeat)
      669    0.000    0.000    0.000    0.000 {method 'copy' of 'list' objects}
        3    0.000    0.000    0.027    0.009 c:\Virtual_Environments\theeng\lib\site-packages\plotly\basedatatypes.py:412(__init__)
      375    0.000    0.000    0.000    0.000 c:\Virtual_Environments\theeng\lib\site-packages\pandas\core\dtypes\common.py:156(<lambda>)
       23    0.000    0.000    0.016    0.001 C:\Engineering Programs\FreeCAD 0.20\Mod\Fem\femtools\ccxtools.py:231(update_objects)
      775    0.000    0.000    0.000    0.000 <frozen importlib._bootstrap_external>:839(create_module)
      177    0.000    0.000    0.000    0.000 c:\Virtual_Environments\theeng\lib\site-packages\pandas\core\construction.py:461(ensure_wrapped_if_datetimelike)
       49    0.000    0.000    0.001    0.000 c:\Virtual_Environments\theeng\lib\site-packages\pymoo\core\population.py:135(merge)
      200    0.000    0.000    0.000    0.000 c:\Virtual_Environments\theeng\lib\site-packages\pymoo\core\evaluator.py:98(<lambda>)
      134    0.000    0.000    0.000    0.000 c:\Virtual_Environments\theeng\lib\site-packages\_plotly_utils\basevalidators.py:2416(compute_graph_obj_module_str)
        3    0.000    0.000    0.000    0.000 {built-in method nt.get_terminal_size}
        4    0.000    0.000    0.469    0.117 c:\Virtual_Environments\theeng\lib\site-packages\plotly\graph_objs\layout\template\_data.py:1319(__init__)
       20    0.000    0.000    0.000    0.000 c:\Virtual_Environments\theeng\lib\site-packages\pymoo\core\population.py:16(collect)
        3    0.000    0.000    0.004    0.001 c:\Virtual_Environments\theeng\lib\site-packages\plotly\express\_core.py:246(make_trace_kwargs)
       23    0.000    0.000    0.010    0.000 C:\Engineering Programs\FreeCAD 0.20\Mod\Fem\femtools\femutils.py:121(get_pref_working_dir)
      609    0.000    0.000    0.000    0.000 c:\Virtual_Environments\theeng\lib\site-packages\numpy\core\multiarray.py:1079(copyto)
      224    0.000    0.000    0.001    0.000 c:\Virtual_Environments\theeng\lib\site-packages\pandas\core\algorithms.py:905(_re_wrap_factorize)
       25    0.000    0.000    0.930    0.037 c:\Virtual_Environments\theeng\lib\site-packages\plotly\basedatatypes.py:5087(update)
       14    0.000    0.000    0.000    0.000 {pandas._libs.lib.infer_dtype}
       13    0.000    0.000    0.004    0.000 c:\Virtual_Environments\theeng\lib\site-packages\pandas\core\internals\managers.py:1394(insert)
      154    0.000    0.000    0.000    0.000 {method '__enter__' of '_thread.lock' objects}
       26    0.000    0.000    0.000    0.000 c:\Virtual_Environments\theeng\lib\site-packages\pandas\core\dtypes\missing.py:268(_isna_array)
      172    0.000    0.000    0.003    0.000 c:\Virtual_Environments\theeng\lib\site-packages\pandas\core\indexes\base.py:7277(ensure_index)
      192    0.000    0.000    0.000    0.000 {method 'split' of 're.Pattern' objects}
       18    0.000    0.000    0.001    0.000 c:\Virtual_Environments\theeng\lib\site-packages\pandas\core\indexing.py:931(_getitem_lowerdim)
        1    0.000    0.000    0.000    0.000 {built-in method _pickle.dump}
      871    0.000    0.000    0.000    0.000 {method 'keys' of 'dict' objects}
      337    0.000    0.000    0.001    0.000 c:\Virtual_Environments\theeng\lib\site-packages\pandas\core\dtypes\missing.py:108(isna)
      495    0.000    0.000    0.000    0.000 {method 'values' of 'dict' objects}
       21    0.000    0.000    0.000    0.000 C:\Python38\lib\sre_compile.py:536(_compile_info)
       19    0.000    0.000    0.033    0.002 c:\Virtual_Environments\theeng\lib\site-packages\pymoo\algorithms\base\genetic.py:99(_advance)
      225    0.000    0.000    0.000    0.000 c:\Virtual_Environments\theeng\lib\site-packages\pandas\core\algorithms.py:235(_ensure_arraylike)
        5    0.000    0.000    0.002    0.000 c:\Virtual_Environments\theeng\lib\site-packages\sklearn\metrics\_regression.py:784(r2_score)
       30    0.000    0.000    0.000    0.000 c:\Virtual_Environments\theeng\lib\site-packages\pandas\core\dtypes\cast.py:1763(construct_1d_object_array_from_listlike)
        1    0.000    0.000    7.170    7.170 c:\Virtual_Environments\theeng\lib\site-packages\theeng\core\optimizer.py:70(convertToSimulator)
       48    0.000    0.000    0.000    0.000 c:\Virtual_Environments\theeng\lib\site-packages\sklearn\utils\_param_validation.py:530(__init__)
       80    0.000    0.000    0.004    0.000 c:\Virtual_Environments\theeng\lib\site-packages\plotly\basedatatypes.py:5339(<listcomp>)
       22    0.000    0.000    0.001    0.000 c:\Virtual_Environments\theeng\lib\site-packages\pandas\core\array_algos\take.py:120(_take_nd_ndarray)
       20    0.000    0.000    0.000    0.000 c:\Virtual_Environments\theeng\lib\site-packages\sklearn\utils\__init__.py:179(_array_indexing)
      142    0.000    0.000    0.000    0.000 c:\Virtual_Environments\theeng\lib\site-packages\pandas\core\dtypes\common.py:1725(validate_all_hashable)
       92    0.000    0.000    0.000    0.000 C:\Python38\lib\platform.py:885(system)
      108    0.000    0.000    0.003    0.000 c:\Virtual_Environments\theeng\lib\site-packages\pymoo\core\duplicate.py:6(default_attr)
       12    0.000    0.000    0.001    0.000 c:\Virtual_Environments\theeng\lib\site-packages\pandas\core\series.py:4773(_reduce)
       30    0.000    0.000    0.001    0.000 c:\Virtual_Environments\theeng\lib\site-packages\pymoo\core\repair.py:8(do)
       54    0.000    0.000    0.000    0.000 c:\Virtual_Environments\theeng\lib\site-packages\pandas\io\formats\printing.py:71(<listcomp>)
      680    0.000    0.000    0.000    0.000 c:\Virtual_Environments\theeng\lib\site-packages\pandas\core\generic.py:353(flags)
       69    0.000    0.000    0.000    0.000 {built-in method _winapi.GetStdHandle}
        6    0.000    0.000    0.002    0.000 c:\Virtual_Environments\theeng\lib\site-packages\pandas\core\frame.py:3565(transpose)
      461    0.000    0.000    0.000    0.000 c:\Virtual_Environments\theeng\lib\site-packages\plotly\basedatatypes.py:118(<listcomp>)
      237    0.000    0.000    0.000    0.000 c:\Virtual_Environments\theeng\lib\site-packages\pandas\_config\config.py:650(_warn_if_deprecated)
      461    0.000    0.000    0.000    0.000 c:\Virtual_Environments\theeng\lib\site-packages\plotly\basedatatypes.py:119(<listcomp>)
    93/91    0.000    0.000    0.000    0.000 c:\Virtual_Environments\theeng\lib\site-packages\plotly\basedatatypes.py:705(__setattr__)
       20    0.000    0.000    0.004    0.000 c:\Virtual_Environments\theeng\lib\site-packages\pymoo\core\algorithm.py:303(_post_advance)
      207    0.000    0.000    0.000    0.000 C:\Python38\lib\contextlib.py:379(_create_cb_wrapper)
      243    0.000    0.000    0.000    0.000 c:\Virtual_Environments\theeng\lib\site-packages\pandas\_config\config.py:579(_select_options)
      218    0.000    0.000    0.000    0.000 c:\Virtual_Environments\theeng\lib\site-packages\sklearn\pipeline.py:307(_final_estimator)
       18    0.000    0.000    0.000    0.000 c:\Virtual_Environments\theeng\lib\site-packages\pandas\core\indexes\base.py:1168(take)
       98    0.000    0.000    0.001    0.000 c:\Virtual_Environments\theeng\lib\site-packages\pymoo\core\population.py:116(pop_from_array_or_individual)
       23    0.000    0.000    0.000    0.000 C:\Python38\lib\codecs.py:681(__init__)
       23    0.000    0.000    0.004    0.000 C:\Engineering Programs\FreeCAD 0.20\Mod\Fem\feminout\importCcxDatResults.py:73(import_dat)
      200    0.000    0.000    0.000    0.000 c:\Virtual_Environments\theeng\lib\site-packages\sklearn\pipeline.py:266(__len__)
       29    0.000    0.000    0.001    0.000 c:\Virtual_Environments\theeng\lib\site-packages\pymoo\util\misc.py:61(random_permuations)
      223    0.000    0.000    0.000    0.000 {method 'index' of 'range' objects}
       41    0.000    0.000    0.000    0.000 c:\Virtual_Environments\theeng\lib\site-packages\pandas\core\indexes\base.py:588(_dtype_to_subclass)
      106    0.000    0.000    0.000    0.000 c:\Virtual_Environments\theeng\lib\site-packages\pandas\core\generic.py:5888(__getattr__)
      313    0.000    0.000    0.000    0.000 c:\Virtual_Environments\theeng\lib\site-packages\pandas\core\indexes\range.py:946(__len__)
       14    0.000    0.000    0.000    0.000 c:\Virtual_Environments\theeng\lib\site-packages\pandas\core\sorting.py:144(_int64_cut_off)
       23    0.000    0.000    0.000    0.000 C:\Python38\lib\codecs.py:423(__init__)
       30    0.000    0.000    0.000    0.000 c:\Virtual_Environments\theeng\lib\site-packages\scipy\sparse\_sputils.py:295(check_shape)
       43    0.000    0.000    0.001    0.000 c:\Virtual_Environments\theeng\lib\site-packages\numpy\core\shape_base.py:223(vstack)
      148    0.000    0.000    0.000    0.000 C:\Python38\lib\threading.py:261(_is_owned)
      311    0.000    0.000    0.000    0.000 {built-in method pandas._libs.missing.checknull}
      284    0.000    0.000    0.000    0.000 c:\Virtual_Environments\theeng\lib\site-packages\pandas\core\dtypes\common.py:1744(<genexpr>)
       58    0.000    0.000    0.001    0.000 c:\Virtual_Environments\theeng\lib\site-packages\pymoo\operators\repair\bounds_repair.py:25(repeat_bounds)
        8    0.000    0.000    0.002    0.000 c:\Virtual_Environments\theeng\lib\site-packages\plotly\basedatatypes.py:2705(_build_dispatch_plan)
       50    0.000    0.000    0.001    0.000 c:\Virtual_Environments\theeng\lib\site-packages\pandas\core\internals\managers.py:1934(from_array)
      414    0.000    0.000    0.000    0.000 C:\Python38\lib\threading.py:513(is_set)
      224    0.000    0.000    0.000    0.000 c:\Virtual_Environments\theeng\lib\site-packages\pandas\core\algorithms.py:855(resolve_na_sentinel)
       50    0.000    0.000    0.001    0.000 C:\Python38\lib\typing.py:768(__instancecheck__)
       23    0.000    0.000    0.000    0.000 {built-in method time.ctime}
       82    0.000    0.000    0.001    0.000 c:\Virtual_Environments\theeng\lib\site-packages\numpy\core\fromnumeric.py:2432(all)
      337    0.000    0.000    0.000    0.000 C:\Python38\lib\sre_parse.py:172(append)
       37    0.000    0.000    0.001    0.000 c:\Virtual_Environments\theeng\lib\site-packages\pandas\core\indexes\base.py:2752(_is_all_dates)
       97    0.000    0.000    0.000    0.000 c:\Virtual_Environments\theeng\lib\site-packages\pandas\core\generic.py:564(_get_axis)
      185    0.000    0.000    0.000    0.000 {method 'view' of 'numpy.ndarray' objects}
        1    0.000    0.000    0.005    0.005 c:\Virtual_Environments\theeng\lib\site-packages\pymoo\util\ref_dirs\energy.py:89(_solve)
      300    0.000    0.000    0.000    0.000 c:\Virtual_Environments\theeng\lib\site-packages\pandas\core\internals\managers.py:172(blknos)
       10    0.000    0.000    0.000    0.000 {method 'get_indexer' of 'pandas._libs.index.IndexEngine' objects}
      800    0.000    0.000    0.000    0.000 C:\Python38\lib\inspect.py:2539(name)
       10    0.000    0.000    0.002    0.000 c:\Virtual_Environments\theeng\lib\site-packages\pandas\core\indexes\base.py:3888(get_indexer)
        8    0.000    0.000    0.006    0.001 c:\Virtual_Environments\theeng\lib\site-packages\_plotly_utils\basevalidators.py:2647(validate_coerce)
       28    0.000    0.000    0.000    0.000 c:\Virtual_Environments\theeng\lib\site-packages\pandas\core\dtypes\common.py:1204(is_numeric_dtype)
       75    0.000    0.000    0.000    0.000 C:\Python38\lib\contextlib.py:238(helper)
       96    0.000    0.000    0.000    0.000 c:\Virtual_Environments\theeng\lib\site-packages\scipy\sparse\_base.py:291(nnz)
       23    0.000    0.000    0.047    0.002 C:\Engineering Programs\FreeCAD 0.20\Mod\Fem\femtools\ccxtools.py:156(purge_results)
        1    0.000    0.000    0.000    0.000 c:\Virtual_Environments\theeng\lib\site-packages\plotly\graph_objs\layout\scene\_xaxis.py:5(XAxis)
       74    0.000    0.000    0.000    0.000 c:\Virtual_Environments\theeng\lib\site-packages\pandas\core\indexing.py:2656(check_deprecated_indexers)
       64    0.000    0.000    0.000    0.000 C:\Python38\lib\inspect.py:493(unwrap)
      160    0.000    0.000    0.000    0.000 c:\Virtual_Environments\theeng\lib\site-packages\_plotly_utils\importers.py:20(<dictcomp>)
      330    0.000    0.000    0.000    0.000 C:\Python38\lib\enum.py:631(__new__)
       78    0.000    0.000    0.000    0.000 c:\Virtual_Environments\theeng\lib\site-packages\numpy\lib\twodim_base.py:33(_min_int)
        5    0.000    0.000    0.000    0.000 c:\Virtual_Environments\theeng\lib\site-packages\sklearn\metrics\_regression.py:615(_assemble_r2_explained_variance)
       12    0.000    0.000    0.000    0.000 c:\Virtual_Environments\theeng\lib\site-packages\scipy\sparse\_compressed.py:136(check_format)
      278    0.000    0.000    0.000    0.000 {method 'release' of '_thread.lock' objects}
       29    0.000    0.000    0.008    0.000 c:\Virtual_Environments\theeng\lib\site-packages\_plotly_utils\basevalidators.py:1587(validate_coerce)
      115    0.000    0.000    0.000    0.000 C:\Python38\lib\os.py:812(fsdecode)
       73    0.000    0.000    0.000    0.000 c:\Virtual_Environments\theeng\lib\site-packages\pandas\core\internals\blocks.py:2186(check_ndim)
       13    0.000    0.000    0.000    0.000 {method '_rebuild_blknos_and_blklocs' of 'pandas._libs.internals.BlockManager' objects}
       21    0.000    0.000    0.003    0.000 C:\Python38\lib\sre_parse.py:937(parse)
     31/1    0.000    0.000    0.001    0.001 C:\Python38\lib\copy.py:258(_reconstruct)
      183    0.000    0.000    0.048    0.000 c:\Virtual_Environments\theeng\lib\site-packages\_plotly_utils\basevalidators.py:2548(data_class)
       50    0.000    0.000    0.000    0.000 C:\Python38\lib\typing.py:771(__subclasscheck__)
      180    0.000    0.000    0.000    0.000 c:\Virtual_Environments\theeng\lib\site-packages\pandas\core\series.py:708(_values)
       23    0.000    0.000    0.002    0.000 C:\Engineering Programs\FreeCAD 0.20\Mod\Fem\femtools\femutils.py:218(check_working_dir)
       65    0.000    0.000    0.000    0.000 c:\Virtual_Environments\theeng\lib\site-packages\pandas\core\common.py:96(is_bool_indexer)
       23    0.000    0.000    0.000    0.000 {built-in method nt.cpu_count}
       23    0.000    0.000    0.001    0.000 C:\Engineering Programs\FreeCAD 0.20\Mod\Fem\femobjects\mesh_result.py:42(__init__)
      341    0.000    0.000    0.000    0.000 c:\Virtual_Environments\theeng\lib\site-packages\pandas\core\generic.py:332(attrs)
      678    0.000    0.000    0.000    0.000 c:\Virtual_Environments\theeng\lib\site-packages\pandas\core\indexes\range.py:433(__iter__)
       12    0.000    0.000    0.001    0.000 c:\Virtual_Environments\theeng\lib\site-packages\scipy\sparse\_coo.py:127(__init__)
       24    0.000    0.000    0.000    0.000 C:\Python38\lib\tempfile.py:133(rng)
      150    0.000    0.000    0.000    0.000 c:\Virtual_Environments\theeng\lib\site-packages\sklearn\utils\_param_validation.py:258(__init__)
      144    0.000    0.000    0.000    0.000 c:\Virtual_Environments\theeng\lib\site-packages\numpy\core\getlimits.py:679(min)
       56    0.000    0.000    0.001    0.000 c:\Virtual_Environments\theeng\lib\site-packages\numpy\core\fromnumeric.py:2829(amin)
        6    0.000    0.000    0.003    0.000 c:\Virtual_Environments\theeng\lib\site-packages\sklearn\preprocessing\_data.py:826(partial_fit)
       10    0.000    0.000    0.663    0.066 c:\Virtual_Environments\theeng\lib\site-packages\plotly\graph_objs\layout\_template.py:250(__init__)
       40    0.000    0.000    0.047    0.001 c:\Virtual_Environments\theeng\lib\site-packages\pymoo\util\function_loader.py:95(load_function)
      192    0.000    0.000    0.001    0.000 C:\Python38\lib\re.py:223(split)
        1    0.000    0.000    0.000    0.000 c:\Virtual_Environments\theeng\lib\site-packages\plotly\graph_objs\layout\scene\_yaxis.py:5(YAxis)
      285    0.000    0.000    0.001    0.000 c:\Virtual_Environments\theeng\lib\site-packages\numpy\core\_methods.py:55(_any)
       66    0.000    0.000    0.000    0.000 c:\Virtual_Environments\theeng\lib\site-packages\pandas\core\dtypes\common.py:1751(pandas_dtype)
       23    0.000    0.000    0.000    0.000 C:\Engineering Programs\FreeCAD 0.20\Mod\Fem\femsolver\settings.py:139(get_dir_setting)
       69    0.000    0.000    0.000    0.000 C:\Python38\lib\subprocess.py:1222(<setcomp>)
        7    0.000    0.000    0.019    0.003 c:\Virtual_Environments\theeng\lib\site-packages\plotly\graph_objs\_parcoords.py:1000(__init__)
      331    0.000    0.000    0.000    0.000 c:\Virtual_Environments\theeng\lib\site-packages\pandas\core\internals\managers.py:2009(_block)
       12    0.000    0.000    0.000    0.000 c:\Virtual_Environments\theeng\lib\site-packages\scipy\sparse\_coo.py:266(_check)
        6    0.000    0.000    0.000    0.000 c:\Virtual_Environments\theeng\lib\site-packages\sklearn\preprocessing\_data.py:74(_is_constant_feature)
       42    0.000    0.000    0.000    0.000 c:\Virtual_Environments\theeng\lib\site-packages\pandas\core\internals\base.py:54(shape)
        1    0.000    0.000    0.000    0.000 c:\Virtual_Environments\theeng\lib\site-packages\plotly\graph_objs\scatterpolargl\marker\_colorbar.py:5(ColorBar)
       38    0.000    0.000    0.000    0.000 c:\Virtual_Environments\theeng\lib\site-packages\pandas\core\base.py:742(__iter__)
       23    0.000    0.000    0.000    0.000 {built-in method start}
       24    0.000    0.000    0.001    0.000 C:\Python38\lib\tempfile.py:147(<listcomp>)
        6    0.000    0.000    0.025    0.004 c:\Virtual_Environments\theeng\lib\site-packages\joblib\parallel.py:838(dispatch_one_batch)
      138    0.000    0.000    0.000    0.000 {method 'close' of '_io.BufferedReader' objects}
       23    0.000    0.000    0.000    0.000 C:\Engineering Programs\FreeCAD 0.20\Mod\Fem\femsolver\calculix\write_femelement_geometry.py:29(write_femelement_geometry)
       95    0.000    0.000    0.000    0.000 c:\Virtual_Environments\theeng\lib\site-packages\pandas\core\dtypes\common.py:1433(is_extension_array_dtype)
       12    0.000    0.000    0.001    0.000 c:\Virtual_Environments\theeng\lib\site-packages\scipy\sparse\_compressed.py:26(__init__)
    72/58    0.000    0.000    0.001    0.000 c:\Virtual_Environments\theeng\lib\site-packages\plotly\basedatatypes.py:4528(_get_child_prop_defaults)
      160    0.000    0.000    0.000    0.000 c:\Virtual_Environments\theeng\lib\site-packages\numpy\lib\arraysetops.py:125(_unpack_tuple)
       91    0.000    0.000    0.000    0.000 {method 'min' of 'numpy.ndarray' objects}
        6    0.000    0.000    0.002    0.000 c:\Virtual_Environments\theeng\lib\site-packages\sklearn\linear_model\_base.py:182(_preprocess_data)
      306    0.000    0.000    0.000    0.000 c:\Virtual_Environments\theeng\lib\site-packages\pandas\io\formats\format.py:888(<genexpr>)
       20    0.000    0.000    0.251    0.013 c:\Virtual_Environments\theeng\lib\site-packages\pymoo\core\algorithm.py:154(next)
       21    0.000    0.000    0.001    0.000 c:\Virtual_Environments\theeng\lib\site-packages\pandas\core\indexing.py:1592(_getitem_axis)
       13    0.000    0.000    0.004    0.000 c:\Virtual_Environments\theeng\lib\site-packages\pandas\core\frame.py:4139(_set_item_mgr)
      261    0.000    0.000    0.000    0.000 c:\Virtual_Environments\theeng\lib\site-packages\pymoo\core\population.py:63(<listcomp>)
       21    0.000    0.000    0.002    0.000 c:\Virtual_Environments\theeng\lib\site-packages\pandas\core\indexing.py:1059(__getitem__)
       13    0.000    0.000    0.002    0.000 c:\Virtual_Environments\theeng\lib\site-packages\pandas\core\internals\managers.py:689(reindex_indexer)
      377    0.000    0.000    0.000    0.000 c:\Virtual_Environments\theeng\lib\site-packages\numpy\lib\shape_base.py:1263(<genexpr>)
      253    0.000    0.000    0.000    0.000 c:\Virtual_Environments\theeng\lib\site-packages\numpy\core\_dtype.py:24(_kind_name)
       95    0.000    0.000    0.001    0.000 <__array_function__ internals>:177(broadcast_to)
       29    0.000    0.000    0.002    0.000 C:\Python38\lib\genericpath.py:16(exists)
        7    0.000    0.000    0.003    0.000 c:\Virtual_Environments\theeng\lib\site-packages\plotly\basedatatypes.py:2769(_dispatch_layout_change_callbacks)
        6    0.000    0.000    0.016    0.003 c:\Virtual_Environments\theeng\lib\site-packages\sklearn\linear_model\_base.py:618(fit)
        6    0.000    0.000    0.008    0.001 c:\Virtual_Environments\theeng\lib\site-packages\sklearn\pipeline.py:336(_fit)
        1    0.000    0.000    0.000    0.000 c:\Virtual_Environments\theeng\lib\site-packages\plotly\graph_objs\histogram2d\_colorbar.py:5(ColorBar)
       38    0.000    0.000    0.000    0.000 c:\Virtual_Environments\theeng\lib\site-packages\pandas\io\formats\format.py:907(_get_formatter)
        6    0.000    0.000    0.000    0.000 c:\Virtual_Environments\theeng\lib\site-packages\sklearn\linear_model\_base.py:356(_set_intercept)
       16    0.000    0.000    0.001    0.000 c:\Virtual_Environments\theeng\lib\site-packages\pandas\core\nanops.py:261(_get_values)
      102    0.000    0.000    0.001    0.000 c:\Virtual_Environments\theeng\lib\site-packages\_plotly_utils\basevalidators.py:42(<listcomp>)
      138    0.000    0.000    0.000    0.000 C:\Python38\lib\threading.py:255(_release_save)
       50    0.000    0.000    0.000    0.000 c:\Virtual_Environments\theeng\lib\site-packages\pandas\io\formats\printing.py:195(as_escaped_string)
       75    0.000    0.000    0.000    0.000 C:\Python38\lib\contextlib.py:108(__enter__)
      342    0.000    0.000    0.000    0.000 c:\Virtual_Environments\theeng\lib\site-packages\numpy\lib\shape_base.py:1273(<genexpr>)
        6    0.000    0.000    0.024    0.004 c:\Virtual_Environments\theeng\lib\site-packages\sklearn\pipeline.py:374(fit)
      414    0.000    0.000    0.000    0.000 {built-in method _winapi.GetCurrentProcess}
      138    0.000    0.000    0.000    0.000 C:\Python38\lib\subprocess.py:196(Detach)
      375    0.000    0.000    0.000    0.000 c:\Virtual_Environments\theeng\lib\site-packages\pandas\core\dtypes\common.py:151(classes_and_not_datetimelike)
      292    0.000    0.000    0.000    0.000 c:\Virtual_Environments\theeng\lib\site-packages\pandas\core\internals\managers.py:188(blklocs)
      243    0.000    0.000    0.000    0.000 c:\Virtual_Environments\theeng\lib\site-packages\pandas\_config\config.py:638(_translate_key)
       82    0.000    0.000    0.001    0.000 <__array_function__ internals>:177(all)
       48    0.000    0.000    0.000    0.000 c:\Virtual_Environments\theeng\lib\site-packages\sklearn\utils\_param_validation.py:538(is_satisfied_by)
       29    0.000    0.000    0.000    0.000 c:\Virtual_Environments\theeng\lib\site-packages\plotly\basedatatypes.py:5703(_process_kwargs)
        1    0.000    0.000    0.000    0.000 c:\Virtual_Environments\theeng\lib\site-packages\plotly\graph_objs\contour\_colorbar.py:5(ColorBar)
      114    0.000    0.000    0.000    0.000 c:\Virtual_Environments\theeng\lib\site-packages\pandas\core\dtypes\common.py:1487(is_ea_or_datetimelike_dtype)
        6    0.000    0.000    0.000    0.000 c:\Virtual_Environments\theeng\lib\site-packages\sklearn\model_selection\_split.py:92(_iter_test_masks)
       13    0.000    0.000    0.007    0.001 c:\Virtual_Environments\theeng\lib\site-packages\pandas\core\frame.py:3955(__setitem__)
      272    0.000    0.000    0.000    0.000 c:\Virtual_Environments\theeng\lib\site-packages\pandas\io\formats\format.py:1580(<genexpr>)
        8    0.000    0.000    1.235    0.154 c:\Virtual_Environments\theeng\lib\site-packages\theeng\core\abstract.py:37(_getMethod)
       73    0.000    0.000    0.001    0.000 <__array_function__ internals>:177(argmin)
      246    0.000    0.000    0.000    0.000 {method 'update' of 'set' objects}
      128    0.000    0.000    0.000    0.000 c:\Virtual_Environments\theeng\lib\site-packages\pandas\core\dtypes\common.py:1154(needs_i8_conversion)
       40    0.000    0.000    0.000    0.000 c:\Virtual_Environments\theeng\lib\site-packages\pandas\core\indexes\base.py:3754(get_loc)
        3    0.000    0.000    0.011    0.004 c:\Virtual_Environments\theeng\lib\site-packages\plotly\graph_objs\layout\scene\_xaxis.py:2029(__init__)
      248    0.000    0.000    0.000    0.000 C:\Python38\lib\inspect.py:80(ismethod)
      350    0.000    0.000    0.000    0.000 {method 'append' of 'collections.deque' objects}
    20/10    0.000    0.000    0.000    0.000 c:\Virtual_Environments\theeng\lib\site-packages\sklearn\base.py:318(_get_tags)
      442    0.000    0.000    0.000    0.000 {pandas._libs.lib.is_scalar}
       95    0.000    0.000    0.001    0.000 c:\Virtual_Environments\theeng\lib\site-packages\numpy\lib\stride_tricks.py:367(broadcast_to)
       12    0.000    0.000    0.000    0.000 c:\Virtual_Environments\theeng\lib\site-packages\_plotly_utils\basevalidators.py:2144(validate_coerce)
        2    0.000    0.000    0.000    0.000 c:\Virtual_Environments\theeng\lib\site-packages\plotly\express\_core.py:214(<listcomp>)
        1    0.000    0.000    0.000    0.000 c:\Virtual_Environments\theeng\lib\site-packages\plotly\graph_objs\_mesh3d.py:5(Mesh3d)
      144    0.000    0.000    0.000    0.000 c:\Virtual_Environments\theeng\lib\site-packages\numpy\core\getlimits.py:692(max)
        1    0.000    0.000    0.000    0.000 c:\Virtual_Environments\theeng\lib\site-packages\plotly\graph_objs\layout\_annotation.py:5(Annotation)
    30/27    0.000    0.000    0.001    0.000 c:\Virtual_Environments\theeng\lib\site-packages\plotly\basedatatypes.py:5397(_prop_set_child)
        3    0.000    0.000    0.010    0.003 c:\Virtual_Environments\theeng\lib\site-packages\plotly\graph_objs\layout\scene\_yaxis.py:2029(__init__)
        1    0.000    0.000    0.000    0.000 {built-in method nt.close}
       50    0.000    0.000    0.000    0.000 c:\Virtual_Environments\theeng\lib\site-packages\pandas\io\formats\printing.py:164(pprint_thing)
        3    0.000    0.000    0.037    0.012 c:\Virtual_Environments\theeng\lib\site-packages\pandas\core\frame.py:6586(drop_duplicates)
        3    0.000    0.000    0.044    0.015 c:\Virtual_Environments\theeng\lib\site-packages\plotly\express\_core.py:903(apply_default_cascade)
        6    0.000    0.000    0.001    0.000 c:\Virtual_Environments\theeng\lib\site-packages\scipy\sparse\_dia.py:89(__init__)
       27    0.000    0.000    0.000    0.000 C:\Python38\lib\_collections_abc.py:657(get)
    20/10    0.000    0.000    0.000    0.000 c:\Virtual_Environments\theeng\lib\site-packages\sklearn\utils\_tags.py:25(_safe_tags)
       29    0.000    0.000    0.000    0.000 c:\Virtual_Environments\theeng\lib\site-packages\pandas\core\internals\blocks.py:2161(new_block_2d)
       84    0.000    0.000    0.000    0.000 c:\Virtual_Environments\theeng\lib\site-packages\pandas\core\internals\base.py:58(_validate_set_axis)
      594    0.000    0.000    0.000    0.000 {method 'rjust' of 'str' objects}
        3    0.000    0.000    0.011    0.004 c:\Virtual_Environments\theeng\lib\site-packages\plotly\graph_objs\layout\scene\_zaxis.py:2029(__init__)
       84    0.000    0.000    0.000    0.000 c:\Virtual_Environments\theeng\lib\site-packages\pandas\core\internals\managers.py:228(set_axis)
       34    0.000    0.000    0.000    0.000 {method 'tolist' of 'numpy.ndarray' objects}
       15    0.000    0.000    0.003    0.000 c:\Virtual_Environments\theeng\lib\site-packages\pandas\core\generic.py:11309(_stat_function)
       26    0.000    0.000    0.000    0.000 c:\Virtual_Environments\theeng\lib\site-packages\numpy\core\numeric.py:1348(normalize_axis_tuple)
       12    0.000    0.000    0.000    0.000 c:\Virtual_Environments\theeng\lib\site-packages\plotly\basedatatypes.py:3055(_build_update_params_from_batch)
       13    0.000    0.000    0.000    0.000 c:\Virtual_Environments\theeng\lib\site-packages\numpy\core\numeric.py:1411(moveaxis)
       53    0.000    0.000    0.000    0.000 c:\Virtual_Environments\theeng\lib\site-packages\pandas\core\dtypes\common.py:585(is_dtype_equal)
        3    0.000    0.000    0.031    0.010 c:\Virtual_Environments\theeng\lib\site-packages\plotly\graph_objs\_bar.py:2508(__init__)
        1    0.000    0.000    0.000    0.000 c:\Virtual_Environments\theeng\lib\site-packages\plotly\graph_objs\_icicle.py:5(Icicle)
       29    0.000    0.000    0.000    0.000 c:\Virtual_Environments\theeng\lib\site-packages\pandas\core\indexes\range.py:173(_simple_new)
       23    0.000    0.000    0.009    0.000 C:\Engineering Programs\FreeCAD 0.20\Mod\Fem\femtools\femutils.py:148(get_temp_dir)
       23    0.000    0.000    0.000    0.000 {method 'path' of 'PySide2.QtCore.QFileInfo' objects}
       56    0.000    0.000    0.001    0.000 <__array_function__ internals>:177(amin)
       51    0.000    0.000    0.000    0.000 c:\Virtual_Environments\theeng\lib\site-packages\numpy\core\fromnumeric.py:1781(ravel)
        4    0.000    0.000    0.000    0.000 c:\Virtual_Environments\theeng\lib\site-packages\pandas\io\formats\printing.py:27(adjoin)
       16    0.000    0.000    0.002    0.000 c:\Virtual_Environments\theeng\lib\site-packages\pandas\io\formats\format.py:1512(format_with_na_rep)
       40    0.000    0.000    0.002    0.000 c:\Virtual_Environments\theeng\lib\site-packages\pymoo\core\callback.py:20(__call__)
       79    0.000    0.000    0.000    0.000 c:\Virtual_Environments\theeng\lib\site-packages\pandas\core\construction.py:861(is_empty_data)
       11    0.000    0.000    0.002    0.000 c:\Virtual_Environments\theeng\lib\site-packages\pandas\core\internals\managers.py:944(take)
       13    0.000    0.000    0.001    0.000 c:\Virtual_Environments\theeng\lib\site-packages\pandas\core\internals\managers.py:301(apply)
       18    0.000    0.000    0.002    0.000 c:\Virtual_Environments\theeng\lib\site-packages\pandas\core\indexing.py:1561(_getitem_tuple)
       12    0.000    0.000    0.001    0.000 c:\Virtual_Environments\theeng\lib\site-packages\pandas\core\series.py:1428(reset_index)
        1    0.000    0.000    0.000    0.000 c:\Virtual_Environments\theeng\lib\site-packages\plotly\graph_objs\scatterternary\_marker.py:5(Marker)
        3    0.000    0.000    0.012    0.004 c:\Virtual_Environments\theeng\lib\site-packages\plotly\graph_objs\_contour.py:2574(__init__)
       48    0.000    0.000    0.000    0.000 c:\Virtual_Environments\theeng\lib\site-packages\scipy\sparse\_coo.py:240(getnnz)
       15    0.000    0.000    0.004    0.000 c:\Virtual_Environments\theeng\lib\site-packages\_plotly_utils\utils.py:88(default)
      341    0.000    0.000    0.000    0.000 c:\Virtual_Environments\theeng\lib\site-packages\pandas\core\flags.py:53(allows_duplicate_labels)
        6    0.000    0.000    0.010    0.002 c:\Virtual_Environments\theeng\lib\site-packages\plotly\graph_objs\layout\_geo.py:1273(__init__)
      150    0.000    0.000    0.000    0.000 c:\Virtual_Environments\theeng\lib\site-packages\pandas\core\common.py:151(cast_scalar_indexer)
       22    0.000    0.000    0.003    0.000 c:\Virtual_Environments\theeng\lib\site-packages\plotly\basedatatypes.py:1832(_set_in)
       24    0.000    0.000    0.011    0.000 c:\Virtual_Environments\theeng\lib\site-packages\plotly\basedatatypes.py:2986(batch_update)
       26    0.000    0.000    0.000    0.000 c:\Virtual_Environments\theeng\lib\site-packages\pandas\io\formats\printing.py:67(<listcomp>)
       16    0.000    0.000    0.004    0.000 c:\Virtual_Environments\theeng\lib\site-packages\pandas\io\formats\format.py:1531(format_values_with)
       12    0.000    0.000    0.000    0.000 {built-in method scipy.sparse._sparsetools.csr_matvecs}
        3    0.000    0.000    0.008    0.003 c:\Virtual_Environments\theeng\lib\site-packages\plotly\graph_objs\carpet\_aaxis.py:1936(__init__)
      138    0.000    0.000    0.000    0.000 {method 'discard' of 'set' objects}
        1    0.000    0.000    0.000    0.000 c:\Virtual_Environments\theeng\lib\site-packages\plotly\graph_objs\scattergl\_marker.py:5(Marker)
        3    0.000    0.000    0.007    0.002 c:\Virtual_Environments\theeng\lib\site-packages\plotly\graph_objs\carpet\_baxis.py:1936(__init__)
       69    0.000    0.000    0.000    0.000 c:\Virtual_Environments\theeng\lib\site-packages\pandas\core\construction.py:676(_sanitize_ndim)
       99    0.000    0.000    0.000    0.000 <__array_function__ internals>:177(can_cast)
        3    0.000    0.000    0.011    0.004 c:\Virtual_Environments\theeng\lib\site-packages\plotly\graph_objs\_histogram2dcontour.py:2462(__init__)
        3    0.000    0.000    0.012    0.004 c:\Virtual_Environments\theeng\lib\site-packages\plotly\graph_objs\_histogram2d.py:2335(__init__)
        6    0.000    0.000    0.006    0.001 c:\Virtual_Environments\theeng\lib\site-packages\plotly\graph_objs\layout\_annotation.py:1541(__init__)
       12    0.000    0.000    0.000    0.000 c:\Virtual_Environments\theeng\lib\site-packages\scipy\sparse\_compressed.py:1168(prune)
        1    0.000    0.000    0.000    0.000 {numpy.random._generator.default_rng}
        1    0.000    0.000    0.005    0.005 c:\Virtual_Environments\theeng\lib\site-packages\pandas\io\formats\string.py:169(<listcomp>)
        3    0.000    0.000    0.011    0.004 c:\Virtual_Environments\theeng\lib\site-packages\plotly\graph_objs\_mesh3d.py:2503(__init__)
      345    0.000    0.000    0.000    0.000 c:\Virtual_Environments\theeng\lib\site-packages\numpy\core\multiarray.py:345(where)
       23    0.000    0.000    0.001    0.000 C:\Python38\lib\tempfile.py:105(_sanitize_params)
       28    0.000    0.000    0.000    0.000 {method 'take' of 'numpy.ndarray' objects}
       12    0.000    0.000    0.000    0.000 {built-in method scipy.sparse._sparsetools.coo_tocsr}
       83    0.000    0.000    0.000    0.000 c:\Virtual_Environments\theeng\lib\site-packages\plotly\basedatatypes.py:135(_remake_path_from_tuple)
       64    0.000    0.000    0.000    0.000 c:\Virtual_Environments\theeng\lib\site-packages\sklearn\base.py:151(<listcomp>)
        3    0.000    0.000    0.006    0.002 c:\Virtual_Environments\theeng\lib\site-packages\plotly\graph_objs\layout\polar\_radialaxis.py:1825(__init__)
       49    0.000    0.000    0.001    0.000 c:\Virtual_Environments\theeng\lib\site-packages\pymoo\core\population.py:75(merge)
       46    0.000    0.000    0.000    0.000 {method 'getParentGroup' of 'App.DocumentObject' objects}
       67    0.000    0.000    0.000    0.000 <__array_function__ internals>:177(copy)
       48    0.000    0.000    0.000    0.000 C:\Python38\lib\sre_parse.py:355(_escape)
       20    0.000    0.000    0.002    0.000 c:\Virtual_Environments\theeng\lib\site-packages\pymoo\util\misc.py:357(has_feasible)
      302    0.000    0.000    0.000    0.000 {built-in method builtins.callable}
       21    0.000    0.000    0.000    0.000 C:\Python38\lib\enum.py:938(__and__)
       16    0.000    0.000    0.005    0.000 c:\Virtual_Environments\theeng\lib\site-packages\pandas\io\formats\format.py:1605(_format_strings)
       76    0.000    0.000    0.000    0.000 c:\Virtual_Environments\theeng\lib\site-packages\numpy\core\_ufunc_config.py:452(_no_nep50_warning)
        5    0.000    0.000    0.006    0.001 c:\Virtual_Environments\theeng\lib\site-packages\sklearn\model_selection\_validation.py:753(_score)
       14    0.000    0.000    0.000    0.000 c:\Virtual_Environments\theeng\lib\site-packages\pandas\core\internals\managers.py:2156(create_block_manager_from_blocks)
       20    0.000    0.000    0.002    0.000 c:\Virtual_Environments\theeng\lib\site-packages\pymoo\algorithms\moo\nsga3.py:111(_set_optimum)
       12    0.000    0.000    0.000    0.000 c:\Virtual_Environments\theeng\lib\site-packages\scipy\sparse\_compressed.py:493(_mul_multivector)
        1    0.000    0.000    0.000    0.000 c:\Virtual_Environments\theeng\lib\site-packages\pymoo\util\normalization.py:94(backward)
        1    0.000    0.000    0.085    0.085 c:\Virtual_Environments\theeng\lib\site-packages\plotly\express\_imshow.py:56(imshow)
       20    0.000    0.000    0.000    0.000 c:\Virtual_Environments\theeng\lib\site-packages\sklearn\utils\__init__.py:215(_determine_key_type)
        3    0.000    0.000    0.011    0.004 c:\Virtual_Environments\theeng\lib\site-packages\plotly\graph_objs\_surface.py:2092(__init__)
       67    0.000    0.000    0.000    0.000 <__array_function__ internals>:177(atleast_2d)
       16    0.000    0.000    0.002    0.000 c:\Virtual_Environments\theeng\lib\site-packages\pandas\io\formats\format.py:1976(_trim_zeros_float)
        3    0.000    0.000    0.016    0.005 c:\Virtual_Environments\theeng\lib\site-packages\plotly\graph_objs\_histogram.py:2437(__init__)
      281    0.000    0.000    0.000    0.000 {pandas._libs.algos.ensure_platform_int}
      207    0.000    0.000    0.000    0.000 C:\Python38\lib\subprocess.py:1058(_remaining_time)
        3    0.000    0.000    0.006    0.002 c:\Virtual_Environments\theeng\lib\site-packages\plotly\graph_objs\layout\polar\_angularaxis.py:1645(__init__)
      203    0.000    0.000    0.000    0.000 C:\Python38\lib\sre_parse.py:249(match)
       19    0.000    0.000    0.045    0.002 c:\Virtual_Environments\theeng\lib\site-packages\pymoo\algorithms\base\genetic.py:82(_infill)
      412    0.000    0.000    0.000    0.000 c:\Virtual_Environments\theeng\lib\site-packages\pymoo\core\individual.py:96(G)
       23    0.000    0.000    0.000    0.000 {built-in method _codecs.lookup}
        2    0.000    0.000    0.001    0.000 c:\Virtual_Environments\theeng\lib\site-packages\pandas\io\formats\format.py:1362(_format_strings)
       42    0.000    0.000    0.000    0.000 c:\Virtual_Environments\theeng\lib\site-packages\pandas\core\dtypes\inference.py:266(is_dict_like)
       48    0.000    0.000    0.000    0.000 {method 'nonzero' of 'numpy.ndarray' objects}
       11    0.000    0.000    0.000    0.000 c:\Virtual_Environments\theeng\lib\site-packages\pandas\core\internals\managers.py:1445(_insert_update_mgr_locs)
       93    0.000    0.000    0.000    0.000 c:\Virtual_Environments\theeng\lib\site-packages\pandas\core\series.py:596(dtype)
       23    0.000    0.000    0.000    0.000 C:\Engineering Programs\FreeCAD 0.20\Mod\Fem\femtools\ccxtools.py:293(set_inp_file_name)
       15    0.000    0.000    0.001    0.000 c:\Virtual_Environments\theeng\lib\site-packages\pandas\core\nanops.py:119(f)
       29    0.000    0.000    0.000    0.000 c:\Virtual_Environments\theeng\lib\site-packages\pymoo\core\mutation.py:42(get_prob_var)
       23    0.000    0.000    0.642    0.028 C:\Engineering Programs\FreeCAD 0.20\Mod\Fem\femresult\resulttools.py:863(calculate_disp_abs)
      198    0.000    0.000    0.000    0.000 C:\Python38\lib\sre_parse.py:160(__len__)
       32    0.000    0.000    0.000    0.000 c:\Virtual_Environments\theeng\lib\site-packages\pandas\core\dtypes\missing.py:460(array_equivalent)
       13    0.000    0.000    0.002    0.000 c:\Virtual_Environments\theeng\lib\site-packages\pandas\core\frame.py:4892(_sanitize_column)
       95    0.000    0.000    0.000    0.000 c:\Virtual_Environments\theeng\lib\site-packages\numpy\lib\function_base.py:346(iterable)
    29/21    0.000    0.000    0.000    0.000 C:\Python38\lib\sre_compile.py:461(_get_literal_prefix)
        3    0.000    0.000    0.015    0.005 c:\Virtual_Environments\theeng\lib\site-packages\plotly\graph_objs\_scattergl.py:2279(__init__)
       73    0.000    0.000    0.000    0.000 {method 'count' of 'list' objects}
       20    0.000    0.000    0.001    0.000 c:\Virtual_Environments\theeng\lib\site-packages\theeng\core\sampler.py:91(<listcomp>)
       23    0.000    0.000    0.000    0.000 {built-in method stop}
        3    0.000    0.000    0.003    0.001 c:\Virtual_Environments\theeng\lib\site-packages\plotly\graph_objs\_pie.py:1824(__init__)
       43    0.000    0.000    0.001    0.000 <__array_function__ internals>:177(vstack)
      283    0.000    0.000    0.000    0.000 c:\Virtual_Environments\theeng\lib\site-packages\numpy\lib\stride_tricks.py:345(<genexpr>)
        8    0.000    0.000    0.008    0.001 c:\Virtual_Environments\theeng\lib\site-packages\plotly\basedatatypes.py:2602(_perform_plotly_relayout)
       77    0.000    0.000    0.000    0.000 c:\Virtual_Environments\theeng\lib\site-packages\pandas\core\indexes\range.py:353(dtype)
       69    0.000    0.000    0.000    0.000 {built-in method sys.exc_info}
       20    0.000    0.000    0.001    0.000 c:\Virtual_Environments\theeng\lib\site-packages\theeng\core\optimizer.py:163(notify)
       16    0.000    0.000    0.017    0.001 c:\Virtual_Environments\theeng\lib\site-packages\plotly\basedatatypes.py:5574(to_plotly_json)
       58    0.000    0.000    0.000    0.000 {built-in method math.ceil}
      342    0.000    0.000    0.000    0.000 {method 'getrandbits' of '_random.Random' objects}
       32    0.000    0.000    0.000    0.000 c:\Virtual_Environments\theeng\lib\site-packages\pandas\io\formats\format.py:1383(_format)
        3    0.000    0.000    0.012    0.004 c:\Virtual_Environments\theeng\lib\site-packages\plotly\graph_objs\_heatmapgl.py:1629(__init__)
       10    0.000    0.000    0.003    0.000 c:\Virtual_Environments\theeng\lib\site-packages\pandas\core\generic.py:3873(_take)
       23    0.000    0.000    0.000    0.000 {method 'baseName' of 'PySide2.QtCore.QFileInfo' objects}
       58    0.000    0.000    0.000    0.000 <__array_function__ internals>:177(reshape)
      448    0.000    0.000    0.000    0.000 C:\Python38\lib\inspect.py:2551(kind)
       50    0.000    0.000    0.000    0.000 {method 'max' of 'numpy.ndarray' objects}
      210    0.000    0.000    0.000    0.000 c:\Virtual_Environments\theeng\lib\site-packages\sklearn\utils\_param_validation.py:226(__init__)
        3    0.000    0.000    0.007    0.002 c:\Virtual_Environments\theeng\lib\site-packages\plotly\graph_objs\layout\ternary\_caxis.py:1461(__init__)
        3    0.000    0.000    0.004    0.001 c:\Virtual_Environments\theeng\lib\site-packages\plotly\graph_objs\layout\coloraxis\_colorbar.py:1650(__init__)
       14    0.000    0.000    0.001    0.000 c:\Virtual_Environments\theeng\lib\site-packages\pandas\core\internals\blocks.py:861(take_nd)
      412    0.000    0.000    0.000    0.000 c:\Virtual_Environments\theeng\lib\site-packages\pymoo\core\individual.py:104(H)
        1    0.000    0.000    0.001    0.001 c:\Virtual_Environments\theeng\lib\site-packages\scipy\stats\_qmc.py:1237(_random_lhs)
        3    0.000    0.000    0.027    0.009 c:\Virtual_Environments\theeng\lib\site-packages\plotly\graph_objs\_scatter3d.py:2158(__init__)
      128    0.000    0.000    0.000    0.000 C:\Python38\lib\sre_parse.py:286(tell)
        6    0.000    0.000    0.000    0.000 c:\Virtual_Environments\theeng\lib\site-packages\sklearn\utils\_param_validation.py:434(__contains__)
        3    0.000    0.000    0.007    0.002 c:\Virtual_Environments\theeng\lib\site-packages\plotly\basedatatypes.py:2097(add_traces)
        3    0.000    0.000    0.015    0.005 c:\Virtual_Environments\theeng\lib\site-packages\plotly\graph_objs\_scatterpolar.py:1885(__init__)
        4    0.000    0.000    0.000    0.000 c:\Virtual_Environments\theeng\lib\site-packages\pandas\core\internals\managers.py:2361(_merge_blocks)
       22    0.000    0.000    0.001    0.000 c:\Virtual_Environments\theeng\lib\site-packages\pandas\core\array_algos\take.py:57(take_nd)
        3    0.000    0.000    0.006    0.002 c:\Virtual_Environments\theeng\lib\site-packages\plotly\graph_objs\layout\ternary\_baxis.py:1461(__init__)
      142    0.000    0.000    0.000    0.000 {built-in method __new__ of type object at 0x00007FFFCD67B810}
       46    0.000    0.000    0.000    0.000 C:\Engineering Programs\FreeCAD 0.20\Mod\Fem\femsolver\calculix\write_femelement_material.py:37(is_density_needed)
        1    0.000    0.000    0.000    0.000 c:\Virtual_Environments\theeng\lib\site-packages\plotly\graph_objs\layout\_legend.py:1(<module>)
        1    0.000    0.000   29.520   29.520 c:\Virtual_Environments\theeng\lib\site-packages\theeng\core\sampler.py:21(sample)
        3    0.000    0.000    0.010    0.003 c:\Virtual_Environments\theeng\lib\site-packages\plotly\graph_objs\_contourcarpet.py:1876(__init__)
       58    0.000    0.000    0.000    0.000 c:\Virtual_Environments\theeng\lib\site-packages\numpy\core\fromnumeric.py:198(reshape)
       18    0.000    0.000    0.001    0.000 c:\Virtual_Environments\theeng\lib\site-packages\pymoo\util\ref_dirs\misc.py:38(project_onto_sum_equals_one_plane)
        3    0.000    0.000    0.000    0.000 C:\Python38\lib\pathlib.py:64(parse_parts)
        3    0.000    0.000    0.668    0.223 c:\Virtual_Environments\theeng\lib\site-packages\_plotly_utils\basevalidators.py:2743(validate_coerce)
        3    0.000    0.000    0.004    0.001 c:\Virtual_Environments\theeng\lib\site-packages\plotly\graph_objs\histogram2d\_colorbar.py:1648(__init__)
      147    0.000    0.000    0.000    0.000 c:\Virtual_Environments\theeng\lib\site-packages\pandas\core\generic.py:550(_get_axis_number)
        5    0.000    0.000    0.021    0.004 c:\Virtual_Environments\theeng\lib\site-packages\sklearn\model_selection\_validation.py:531(_fit_and_score)
       16    0.000    0.000    0.000    0.000 c:\Virtual_Environments\theeng\lib\site-packages\pandas\core\nanops.py:1453(_maybe_null_out)
        3    0.000    0.000    0.004    0.001 c:\Virtual_Environments\theeng\lib\site-packages\plotly\graph_objs\contourcarpet\_colorbar.py:1649(__init__)
        3    0.000    0.000    0.016    0.005 c:\Virtual_Environments\theeng\lib\site-packages\plotly\graph_objs\_scatterpolargl.py:1805(__init__)
       27    0.000    0.000    0.000    0.000 c:\Virtual_Environments\theeng\lib\site-packages\pandas\core\indexes\api.py:384(default_index)
        3    0.000    0.000    0.004    0.001 c:\Virtual_Environments\theeng\lib\site-packages\plotly\graph_objs\histogram2dcontour\_colorbar.py:1651(__init__)
        2    0.000    0.000    0.006    0.003 c:\Virtual_Environments\theeng\lib\site-packages\plotly\express\_core.py:1706(infer_config)
      175    0.000    0.000    0.000    0.000 c:\Virtual_Environments\theeng\lib\site-packages\_plotly_utils\basevalidators.py:1295(numbers_allowed)
        1    0.000    0.000    0.934    0.934 c:\Virtual_Environments\theeng\lib\site-packages\plotly\express\_chart_types.py:12(scatter)
        3    0.000    0.000    0.004    0.001 c:\Virtual_Environments\theeng\lib\site-packages\plotly\graph_objs\scattergeo\marker\_colorbar.py:1651(__init__)
       38    0.000    0.000    0.000    0.000 C:\Python38\lib\os.py:740(encodekey)
       12    0.000    0.000    0.000    0.000 c:\Virtual_Environments\theeng\lib\site-packages\numpy\lib\function_base.py:562(asarray_chkfinite)
        3    0.000    0.000    0.021    0.007 c:\Virtual_Environments\theeng\lib\site-packages\plotly\graph_objs\_barpolar.py:1490(__init__)
       69    0.000    0.000    0.000    0.000 C:\Python38\lib\codecs.py:260(__init__)
       64    0.000    0.000    0.003    0.000 C:\Python38\lib\inspect.py:3103(signature)
        3    0.000    0.000    0.004    0.001 c:\Virtual_Environments\theeng\lib\site-packages\plotly\graph_objs\heatmapgl\_colorbar.py:1647(__init__)
       12    0.000    0.000    0.007    0.001 c:\Virtual_Environments\theeng\lib\site-packages\sklearn\pipeline.py:883(_fit_transform_one)
        3    0.000    0.000    0.004    0.001 c:\Virtual_Environments\theeng\lib\site-packages\plotly\graph_objs\scatter3d\marker\_colorbar.py:1650(__init__)
        3    0.000    0.000    0.004    0.001 c:\Virtual_Environments\theeng\lib\site-packages\plotly\graph_objs\surface\_colorbar.py:1648(__init__)
        1    0.000    0.000    0.000    0.000 c:\Virtual_Environments\theeng\lib\site-packages\plotly\graph_objs\layout\_xaxis.py:5(XAxis)
        3    0.000    0.000    0.005    0.002 c:\Virtual_Environments\theeng\lib\site-packages\plotly\graph_objs\parcoords\line\_colorbar.py:1649(__init__)
        3    0.000    0.000    0.004    0.001 c:\Virtual_Environments\theeng\lib\site-packages\plotly\graph_objs\scatterternary\marker\_colorbar.py:1652(__init__)
        4    0.000    0.000    0.002    0.000 c:\Virtual_Environments\theeng\lib\site-packages\pandas\core\frame.py:10773(_reduce)
        3    0.000    0.000    0.016    0.005 c:\Virtual_Environments\theeng\lib\site-packages\plotly\graph_objs\_scatterternary.py:1857(__init__)
       43    0.000    0.000    0.000    0.000 c:\Virtual_Environments\theeng\lib\site-packages\numpy\core\shape_base.py:218(_vhstack_dispatcher)
      138    0.000    0.000    0.000    0.000 C:\Python38\lib\threading.py:1071(is_alive)
        3    0.000    0.000    0.004    0.001 c:\Virtual_Environments\theeng\lib\site-packages\plotly\graph_objs\heatmap\_colorbar.py:1648(__init__)
       29    0.000    0.000    0.000    0.000 c:\Virtual_Environments\theeng\lib\site-packages\numpy\core\numeric.py:632(flatnonzero)
        3    0.000    0.000    0.004    0.001 c:\Virtual_Environments\theeng\lib\site-packages\plotly\graph_objs\scattercarpet\marker\_colorbar.py:1651(__init__)
        3    0.000    0.000    0.006    0.002 c:\Virtual_Environments\theeng\lib\site-packages\plotly\graph_objs\layout\ternary\_aaxis.py:1461(__init__)
        3    0.000    0.000    0.004    0.001 c:\Virtual_Environments\theeng\lib\site-packages\plotly\graph_objs\contour\_colorbar.py:1648(__init__)
      256    0.000    0.000    0.000    0.000 c:\Virtual_Environments\theeng\lib\site-packages\pandas\core\indexes\base.py:5090(_values)
       29    0.000    0.000    0.000    0.000 c:\Virtual_Environments\theeng\lib\site-packages\pandas\core\indexes\base.py:5116(_get_engine_target)
        3    0.000    0.000    0.010    0.003 c:\Virtual_Environments\theeng\lib\site-packages\plotly\graph_objs\_choropleth.py:1755(__init__)
        3    0.000    0.000    0.004    0.001 c:\Virtual_Environments\theeng\lib\site-packages\plotly\graph_objs\mesh3d\_colorbar.py:1648(__init__)
       95    0.000    0.000    0.000    0.000 c:\Virtual_Environments\theeng\lib\site-packages\numpy\lib\stride_tricks.py:25(_maybe_view_as_subclass)
       94    0.000    0.000    0.000    0.000 {method 'update' of 'dict' objects}
        3    0.000    0.000    0.016    0.005 c:\Virtual_Environments\theeng\lib\site-packages\plotly\graph_objs\_scattercarpet.py:1785(__init__)
       19    0.000    0.000    0.002    0.000 c:\Virtual_Environments\theeng\lib\site-packages\numpy\core\numeric.py:2199(allclose)
        6    0.000    0.000    0.009    0.001 c:\Virtual_Environments\theeng\lib\site-packages\plotly\io\_json.py:60(to_json_plotly)
       92    0.000    0.000    0.000    0.000 C:\Python38\lib\platform.py:747(uname)
      288    0.000    0.000    0.000    0.000 {method 'isidentifier' of 'str' objects}
        3    0.000    0.000    0.226    0.075 c:\Virtual_Environments\theeng\lib\site-packages\plotly\express\_core.py:2283(init_figure)
        3    0.000    0.000    0.004    0.001 c:\Virtual_Environments\theeng\lib\site-packages\plotly\graph_objs\scatterpolargl\marker\_colorbar.py:1652(__init__)
       11    0.000    0.000    0.000    0.000 c:\Virtual_Environments\theeng\lib\site-packages\pandas\core\dtypes\cast.py:1178(maybe_infer_to_datetimelike)
       49    0.000    0.000    0.000    0.000 c:\Virtual_Environments\theeng\lib\site-packages\pymoo\util\misc.py:215(at_least_2d_array)
       20    0.000    0.000    0.046    0.002 c:\Virtual_Environments\theeng\lib\site-packages\pymoo\core\algorithm.py:178(infill)
       19    0.000    0.000    0.001    0.000 c:\Virtual_Environments\theeng\lib\site-packages\sklearn\utils\validation.py:383(check_consistent_length)
        3    0.000    0.000    0.004    0.001 c:\Virtual_Environments\theeng\lib\site-packages\plotly\graph_objs\scatterpolar\marker\_colorbar.py:1651(__init__)
       20    0.000    0.000    0.000    0.000 c:\Virtual_Environments\theeng\lib\site-packages\sklearn\utils\__init__.py:285(_safe_indexing)
      436    0.000    0.000    0.000    0.000 {method 'ljust' of 'str' objects}
        1    0.000    0.000    0.000    0.000 c:\Virtual_Environments\theeng\lib\site-packages\plotly\graph_objs\_pie.py:5(Pie)
        3    0.000    0.000    0.004    0.001 c:\Virtual_Environments\theeng\lib\site-packages\plotly\graph_objs\choropleth\_colorbar.py:1647(__init__)
      103    0.000    0.000    0.000    0.000 C:\Python38\lib\sre_parse.py:111(__init__)
        1    0.000    0.000    0.000    0.000 c:\Virtual_Environments\theeng\lib\site-packages\plotly\validators\layout\xaxis\_linecolor.py:4(LinecolorValidator)
       30    0.000    0.000    0.000    0.000 c:\Virtual_Environments\theeng\lib\site-packages\scipy\sparse\_sputils.py:238(isshape)
        3    0.000    0.000    0.004    0.001 c:\Virtual_Environments\theeng\lib\site-packages\plotly\graph_objs\scattermapbox\marker\_colorbar.py:1651(__init__)
        1    0.000    0.000    0.000    0.000 c:\Virtual_Environments\theeng\lib\site-packages\plotly\graph_objs\layout\_yaxis.py:5(YAxis)
        3    0.000    0.000    0.004    0.001 c:\Virtual_Environments\theeng\lib\site-packages\plotly\graph_objs\scattergl\marker\_colorbar.py:1650(__init__)
        3    0.000    0.000    0.016    0.005 c:\Virtual_Environments\theeng\lib\site-packages\plotly\graph_objs\_scattergeo.py:1815(__init__)
       80    0.000    0.000    0.000    0.000 c:\Virtual_Environments\theeng\lib\site-packages\pandas\io\formats\format.py:435(justify)
        4    0.000    0.000    0.227    0.057 C:\Python38\lib\pkgutil.py:597(get_data)
       80    0.000    0.000    0.000    0.000 c:\Virtual_Environments\theeng\lib\site-packages\pandas\io\formats\printing.py:62(justify)
        2    0.000    0.000    0.010    0.005 c:\Virtual_Environments\theeng\lib\site-packages\plotly\express\_core.py:1279(build_dataframe)
        3    0.000    0.000    0.004    0.001 c:\Virtual_Environments\theeng\lib\site-packages\plotly\graph_objs\scatter3d\line\_colorbar.py:1649(__init__)
       21    0.000    0.000    0.000    0.000 C:\Python38\lib\sre_parse.py:224(__init__)
        3    0.000    0.000    0.015    0.005 c:\Virtual_Environments\theeng\lib\site-packages\plotly\graph_objs\_scattermapbox.py:1686(__init__)
      126    0.000    0.000    0.000    0.000 c:\Virtual_Environments\theeng\lib\site-packages\pandas\core\internals\base.py:56(<genexpr>)
       18    0.000    0.000    0.002    0.000 c:\Virtual_Environments\theeng\lib\site-packages\sklearn\base.py:573(_validate_params)
        6    0.000    0.000    0.000    0.000 c:\Virtual_Environments\theeng\lib\site-packages\joblib\parallel.py:89(get_active_backend)
       20    0.000    0.000    0.000    0.000 c:\Virtual_Environments\theeng\lib\site-packages\pymoo\core\problem.py:379(default_shape)
        1    0.000    0.000    0.000    0.000 c:\Virtual_Environments\theeng\lib\site-packages\plotly\validators\parcoords\line\colorbar\_outlinewidth.py:4(OutlinewidthValidator)
       12    0.000    0.000    0.011    0.001 c:\Virtual_Environments\theeng\lib\site-packages\plotly\basedatatypes.py:2851(plotly_update)
        3    0.000    0.000    0.024    0.008 c:\Virtual_Environments\theeng\lib\site-packages\plotly\graph_objs\_carpet.py:1536(__init__)
       12    0.000    0.000    0.000    0.000 c:\Virtual_Environments\theeng\lib\site-packages\scipy\_lib\_util.py:206(_asarray_validated)
      105    0.000    0.000    0.000    0.000 c:\Virtual_Environments\theeng\lib\site-packages\pandas\core\common.py:362(apply_if_callable)
       91    0.000    0.000    0.000    0.000 c:\Virtual_Environments\theeng\lib\site-packages\numpy\core\_methods.py:43(_amin)
        1    0.000    0.000    0.077    0.077 c:\Virtual_Environments\theeng\lib\site-packages\theeng\algorithms\visualizations.py:32(parallelCoordinate)
       39    0.000    0.000    0.000    0.000 c:\Virtual_Environments\theeng\lib\site-packages\pandas\core\indexing.py:1539(_validate_integer)
        6    0.000    0.000    0.966    0.161 <frozen importlib._bootstrap_external>:1164(create_module)
       22    0.000    0.000    0.001    0.000 c:\Virtual_Environments\theeng\lib\site-packages\pandas\core\generic.py:5959(_protect_consolidate)
       10    0.000    0.000    0.001    0.000 c:\Virtual_Environments\theeng\lib\site-packages\pandas\core\generic.py:6076(astype)
       51    0.000    0.000    0.000    0.000 <__array_function__ internals>:177(ravel)
        6    0.000    0.000    0.009    0.001 c:\Virtual_Environments\theeng\lib\site-packages\plotly\io\_templates.py:66(__getitem__)
       94    0.000    0.000    0.000    0.000 c:\Virtual_Environments\theeng\lib\site-packages\pandas\core\indexes\base.py:870(_reset_identity)
       18    0.000    0.000    0.000    0.000 c:\Virtual_Environments\theeng\lib\site-packages\pandas\core\indexing.py:864(_validate_tuple_indexer)
       41    0.000    0.000    0.000    0.000 c:\Virtual_Environments\theeng\lib\site-packages\pandas\core\dtypes\common.py:790(is_unsigned_integer_dtype)
      120    0.000    0.000    0.000    0.000 c:\Virtual_Environments\theeng\lib\site-packages\pandas\core\dtypes\common.py:1420(is_1d_only_ea_dtype)
       31    0.000    0.000    0.000    0.000 {method '__reduce_ex__' of 'object' objects}
       31    0.000    0.000    0.000    0.000 C:\Python38\lib\sre_compile.py:249(_compile_charset)
       22    0.000    0.000    0.000    0.000 c:\Virtual_Environments\theeng\lib\site-packages\numpy\lib\function_base.py:5444(append)
        1    0.000    0.000    0.000    0.000 c:\Virtual_Environments\theeng\lib\site-packages\pymoo\util\normalization.py:41(__init__)
        6    0.000    0.000    0.043    0.007 c:\Virtual_Environments\theeng\lib\site-packages\plotly\graph_objs\layout\_scene.py:1541(__init__)
        6    0.000    0.000    0.004    0.001 c:\Virtual_Environments\theeng\lib\site-packages\sklearn\linear_model\_base.py:294(_rescale_data)
        6    0.000    0.000    0.008    0.001 c:\Virtual_Environments\theeng\lib\site-packages\plotly\graph_objs\layout\_shape.py:765(__init__)
       21    0.000    0.000    0.002    0.000 C:\Python38\lib\sre_compile.py:598(_code)
       15    0.000    0.000    0.001    0.000 c:\Virtual_Environments\theeng\lib\site-packages\pandas\core\nanops.py:1030(reduction)
       36    0.000    0.000    0.000    0.000 c:\Virtual_Environments\theeng\lib\site-packages\pandas\core\indexing.py:1448(_validate_key)
       31    0.000    0.000    0.000    0.000 c:\Virtual_Environments\theeng\lib\site-packages\pandas\core\internals\managers.py:1854(_consolidate_check)
      157    0.000    0.000    0.000    0.000 {built-in method builtins.iter}
       15    0.000    0.000    0.000    0.000 c:\Virtual_Environments\theeng\lib\site-packages\pandas\core\dtypes\cast.py:120(maybe_convert_platform)
      129    0.000    0.000    0.000    0.000 c:\Virtual_Environments\theeng\lib\site-packages\pandas\core\dtypes\inference.py:292(<genexpr>)
      207    0.000    0.000    0.000    0.000 {method 'pop' of 'collections.deque' objects}
      128    0.000    0.000    0.000    0.000 C:\Python38\lib\inspect.py:158(isfunction)
      203    0.000    0.000    0.000    0.000 c:\Virtual_Environments\theeng\lib\site-packages\pymoo\core\variable.py:24(get)
       18    0.000    0.000    0.000    0.000 c:\Virtual_Environments\theeng\lib\site-packages\sklearn\utils\extmath.py:937(_safe_accumulator_op)
      230    0.000    0.000    0.000    0.000 c:\Virtual_Environments\theeng\lib\site-packages\numpy\core\fromnumeric.py:2950(_prod_dispatcher)
       18    0.000    0.000    0.000    0.000 c:\Virtual_Environments\theeng\lib\site-packages\pandas\core\indexing.py:1524(_is_scalar_access)
       11    0.000    0.000    0.000    0.000 c:\Virtual_Environments\theeng\lib\site-packages\pandas\core\internals\managers.py:1455(_insert_update_blklocs_and_blknos)
       12    0.000    0.000    0.002    0.000 c:\Virtual_Environments\theeng\lib\site-packages\plotly\express\_core.py:1067(to_unindexed_series)
      175    0.000    0.000    0.000    0.000 c:\Virtual_Environments\theeng\lib\site-packages\numpy\core\fromnumeric.py:2328(_any_dispatcher)
       64    0.000    0.000    0.003    0.000 C:\Python38\lib\inspect.py:2851(from_callable)
       54    0.000    0.000    0.000    0.000 c:\Virtual_Environments\theeng\lib\site-packages\pandas\core\internals\base.py:46(__len__)
       15    0.000    0.000    0.000    0.000 {built-in method _imp.is_builtin}
    20/19    0.000    0.000    0.040    0.002 c:\Virtual_Environments\theeng\lib\site-packages\pandas\util\_decorators.py:323(wrapper)
       10    0.000    0.000    0.000    0.000 C:\Python38\lib\functools.py:34(update_wrapper)
      188    0.000    0.000    0.000    0.000 c:\Virtual_Environments\theeng\lib\site-packages\plotly\basedatatypes.py:1427(<lambda>)
      217    0.000    0.000    0.000    0.000 c:\Virtual_Environments\theeng\lib\site-packages\numpy\core\multiarray.py:1392(may_share_memory)
        6    0.000    0.000    0.031    0.005 c:\Virtual_Environments\theeng\lib\site-packages\plotly\graph_objs\layout\_ternary.py:926(__init__)
       66    0.000    0.000    0.001    0.000 c:\Virtual_Environments\theeng\lib\site-packages\sklearn\utils\_param_validation.py:74(<listcomp>)
        6    0.000    0.000    0.022    0.004 c:\Virtual_Environments\theeng\lib\site-packages\plotly\graph_objs\layout\_polar.py:939(__init__)
        1    0.000    0.000    0.000    0.000 c:\Virtual_Environments\theeng\lib\site-packages\pymoo\core\problem.py:62(__init__)
      3/1    0.000    0.000    0.429    0.429 c:\Virtual_Environments\theeng\lib\site-packages\pymoo\util\reference_direction.py:39(do)
        3    0.000    0.000    1.397    0.466 c:\Virtual_Environments\theeng\lib\site-packages\theeng\core\visualization.py:13(plot)
        6    0.000    0.000    0.002    0.000 c:\Virtual_Environments\theeng\lib\site-packages\sklearn\preprocessing\_polynomial.py:234(fit)
       12    0.000    0.000    0.000    0.000 c:\Virtual_Environments\theeng\lib\site-packages\_plotly_utils\basevalidators.py:955(__init__)
       21    0.000    0.000    0.000    0.000 c:\Virtual_Environments\theeng\lib\site-packages\pandas\io\formats\format.py:481(get_adjustment)
       21    0.000    0.000    0.001    0.000 c:\Virtual_Environments\theeng\lib\site-packages\pandas\core\indexing.py:2488(convert_to_index_sliceable)
      203    0.000    0.000    0.000    0.000 c:\Virtual_Environments\theeng\lib\site-packages\numpy\core\multiarray.py:152(concatenate)
        2    0.000    0.000    0.000    0.000 c:\Virtual_Environments\theeng\lib\site-packages\plotly\express\_core.py:989(_get_reserved_col_names)
        3    0.000    0.000    0.000    0.000 c:\Virtual_Environments\theeng\lib\site-packages\pandas\core\internals\managers.py:572(_combine)
       20    0.000    0.000    0.007    0.000 c:\Virtual_Environments\theeng\lib\site-packages\pandas\io\formats\format.py:1358(get_result)
        5    0.000    0.000    0.000    0.000 c:\Virtual_Environments\theeng\lib\site-packages\plotly\validators\_data.py:5(__init__)
       16    0.000    0.000    0.001    0.000 c:\Virtual_Environments\theeng\lib\site-packages\pandas\io\formats\format.py:1990(should_trim)
       69    0.000    0.000    0.000    0.000 {built-in method _stat.S_ISDIR}
        6    0.000    0.000    0.002    0.000 c:\Virtual_Environments\theeng\lib\site-packages\pandas\core\indexes\base.py:4318(reindex)
        8    0.000    0.000    0.002    0.000 c:\Virtual_Environments\theeng\lib\site-packages\pandas\core\generic.py:6045(dtypes)
       20    0.000    0.000    0.000    0.000 c:\Virtual_Environments\theeng\lib\site-packages\pymoo\util\nds\non_dominated_sorting.py:9(__init__)
      200    0.000    0.000    0.000    0.000 c:\Virtual_Environments\theeng\lib\site-packages\pymoo\core\individual.py:92(F)
       52    0.000    0.000    0.000    0.000 c:\Virtual_Environments\theeng\lib\site-packages\pandas\core\dtypes\inference.py:363(is_sequence)
       16    0.000    0.000    0.000    0.000 c:\Virtual_Environments\theeng\lib\site-packages\pandas\core\internals\managers.py:1061(from_blocks)
       20    0.000    0.000    0.000    0.000 c:\Virtual_Environments\theeng\lib\site-packages\pymoo\core\problem.py:12(__init__)
       90    0.000    0.000    0.000    0.000 c:\Virtual_Environments\theeng\lib\site-packages\scipy\sparse\_sputils.py:308(<genexpr>)
        4    0.000    0.000    0.000    0.000 c:\Virtual_Environments\theeng\lib\site-packages\numpy\core\numerictypes.py:573(_can_coerce_all)
       79    0.000    0.000    0.000    0.000 c:\Virtual_Environments\theeng\lib\site-packages\numpy\core\_methods.py:47(_sum)
        3    0.000    0.000    0.031    0.010 c:\Virtual_Environments\theeng\lib\site-packages\plotly\graph_objs\_table.py:881(__init__)
       38    0.000    0.000    0.000    0.000 c:\Virtual_Environments\theeng\lib\site-packages\_plotly_utils\basevalidators.py:1037(validate_coerce)
        7    0.000    0.000    0.005    0.001 c:\Virtual_Environments\theeng\lib\site-packages\plotly\graph_objs\layout\_colorscale.py:169(__init__)
        1    0.000    0.000    0.001    0.001 c:\Virtual_Environments\theeng\lib\site-packages\plotly\express\_core.py:279(<listcomp>)
       24    0.000    0.000    0.000    0.000 c:\Virtual_Environments\theeng\lib\site-packages\pandas\core\apply.py:1016(series_generator)
        4    0.000    0.000    0.000    0.000 c:\Virtual_Environments\theeng\lib\site-packages\_plotly_utils\basevalidators.py:1961(__init__)
       16    0.000    0.000    0.001    0.000 c:\Virtual_Environments\theeng\lib\site-packages\plotly\basedatatypes.py:4485(_init_child_props)
       69    0.000    0.000    0.000    0.000 c:\Virtual_Environments\theeng\lib\site-packages\pandas\core\construction.py:713(_sanitize_str_dtypes)
       30    0.000    0.000    0.001    0.000 c:\Virtual_Environments\theeng\lib\site-packages\_plotly_utils\basevalidators.py:394(validate_coerce)
        1    0.000    0.000    0.000    0.000 c:\Virtual_Environments\theeng\lib\site-packages\scipy\stats\_qmc.py:91(scale)
      294    0.000    0.000    0.000    0.000 {built-in method builtins.ord}
       23    0.000    0.000    0.000    0.000 C:\Python38\lib\tempfile.py:84(_infer_return_type)
        6    0.000    0.000    0.000    0.000 c:\Virtual_Environments\theeng\lib\site-packages\joblib\memory.py:910(__init__)
        2    0.000    0.000    0.001    0.001 c:\Virtual_Environments\theeng\lib\site-packages\pandas\core\reshape\concat.py:389(__init__)
        4    0.000    0.000    0.002    0.000 c:\Virtual_Environments\theeng\lib\site-packages\pandas\core\internals\construction.py:423(dict_to_mgr)
        1    0.000    0.000    0.000    0.000 c:\Virtual_Environments\theeng\lib\site-packages\plotly\graph_objs\carpet\_aaxis.py:5(Aaxis)
        1    0.000    0.000    0.000    0.000 c:\Virtual_Environments\theeng\lib\site-packages\plotly\graph_objs\_contour.py:5(Contour)
       64    0.000    0.000    0.000    0.000 {method 'values' of 'mappingproxy' objects}
       42    0.000    0.000    0.000    0.000 c:\Virtual_Environments\theeng\lib\site-packages\pandas\core\internals\managers.py:1846(is_consolidated)
        3    0.000    0.000    0.010    0.003 c:\Virtual_Environments\theeng\lib\site-packages\plotly\graph_objs\scatterternary\_marker.py:1349(__init__)
        1    0.000    0.000    0.000    0.000 c:\Virtual_Environments\theeng\lib\site-packages\plotly\graph_objs\carpet\_baxis.py:5(Baxis)
        3    0.000    0.000    0.009    0.003 c:\Virtual_Environments\theeng\lib\site-packages\plotly\graph_objs\scatterpolar\_marker.py:1349(__init__)
       30    0.000    0.000    0.000    0.000 c:\Virtual_Environments\theeng\lib\site-packages\scipy\sparse\_base.py:105(__init__)
        1    0.000    0.000    0.000    0.000 c:\Virtual_Environments\theeng\lib\site-packages\plotly\graph_objs\heatmap\_colorbar.py:5(ColorBar)
        3    0.000    0.000    0.010    0.003 c:\Virtual_Environments\theeng\lib\site-packages\plotly\graph_objs\scatter3d\_marker.py:1037(__init__)
        1    0.000    0.000    0.000    0.000 c:\Virtual_Environments\theeng\lib\site-packages\plotly\graph_objs\scattercarpet\marker\_colorbar.py:5(ColorBar)
        6    0.000    0.000    0.001    0.000 c:\Virtual_Environments\theeng\lib\site-packages\plotly\graph_objs\layout\_title.py:332(__init__)
        8    0.000    0.000    0.000    0.000 c:\Virtual_Environments\theeng\lib\site-packages\_plotly_utils\basevalidators.py:2088(build_validator)
        3    0.000    0.000    0.016    0.005 c:\Virtual_Environments\theeng\lib\site-packages\plotly\graph_objs\barpolar\_marker.py:953(__init__)
       42    0.000    0.000    0.000    0.000 c:\Virtual_Environments\theeng\lib\site-packages\pandas\core\dtypes\common.py:736(is_signed_integer_dtype)
        6    0.000    0.000    0.003    0.000 c:\Virtual_Environments\theeng\lib\site-packages\plotly\graph_objs\layout\_mapbox.py:511(__init__)
        2    0.000    0.000    0.002    0.001 c:\Virtual_Environments\theeng\lib\site-packages\plotly\express\_core.py:1924(get_groups_and_orders)
        1    0.000    0.000    0.000    0.000 c:\Virtual_Environments\theeng\lib\site-packages\plotly\graph_objs\_surface.py:5(Surface)
      131    0.000    0.000    0.000    0.000 {pandas._libs.lib.is_iterator}
        3    0.000    0.000    0.010    0.003 c:\Virtual_Environments\theeng\lib\site-packages\plotly\graph_objs\scattergeo\_marker.py:1327(__init__)
        1    0.000    0.000    0.000    0.000 c:\Virtual_Environments\theeng\lib\site-packages\plotly\graph_objs\_heatmap.py:5(Heatmap)
        1    0.000    0.000    0.031    0.031 C:\Engineering Programs\FreeCAD 0.20\Mod\Fem\femsolver\calculix\writer.py:25(<module>)
       41    0.000    0.000    0.000    0.000 {method 'swapaxes' of 'numpy.ndarray' objects}
        1    0.000    0.000    0.000    0.000 c:\Virtual_Environments\theeng\lib\site-packages\plotly\graph_objs\_scatter3d.py:5(Scatter3d)
        3    0.000    0.000    0.005    0.002 c:\Virtual_Environments\theeng\lib\site-packages\plotly\graph_objs\barpolar\marker\_pattern.py:417(__init__)
       11    0.000    0.000    0.000    0.000 C:\Python38\lib\queue.py:153(get)
       18    0.000    0.000    0.000    0.000 c:\Virtual_Environments\theeng\lib\site-packages\pandas\core\algorithms.py:1484(take)
      154    0.000    0.000    0.000    0.000 {method '__exit__' of '_thread.lock' objects}
        3    0.000    0.000    0.010    0.003 c:\Virtual_Environments\theeng\lib\site-packages\plotly\graph_objs\scattercarpet\_marker.py:1349(__init__)
       37    0.000    0.000    0.000    0.000 c:\Virtual_Environments\theeng\lib\site-packages\plotly\basedatatypes.py:4621(figure)
       22    0.000    0.000    0.000    0.000 c:\Virtual_Environments\theeng\lib\site-packages\pandas\core\array_algos\take.py:554(_take_preprocess_indexer_and_fill_value)
       10    0.000    0.000    0.000    0.000 c:\Virtual_Environments\theeng\lib\site-packages\pandas\core\internals\blocks.py:504(astype)
       38    0.000    0.000    0.000    0.000 {method 'reset' of 'ContextVar' objects}
        1    0.000    0.000    0.000    0.000 c:\Virtual_Environments\theeng\lib\site-packages\plotly\graph_objs\contourcarpet\_colorbar.py:5(ColorBar)
        1    0.000    0.000    0.000    0.000 c:\Virtual_Environments\theeng\lib\site-packages\plotly\graph_objs\layout\coloraxis\_colorbar.py:5(ColorBar)
       53    0.000    0.000    0.002    0.000 C:\Python38\lib\re.py:250(compile)
        5    0.000    0.000    0.000    0.000 c:\Virtual_Environments\theeng\lib\site-packages\plotly\graph_objs\scatter\_marker.py:1349(__init__)
        1    0.000    0.000    0.000    0.000 c:\Virtual_Environments\theeng\lib\site-packages\plotly\graph_objs\_choropleth.py:5(Choropleth)
      155    0.000    0.000    0.000    0.000 c:\Virtual_Environments\theeng\lib\site-packages\numpy\core\fromnumeric.py:2698(_amax_dispatcher)
        4    0.000    0.000    0.003    0.001 c:\Virtual_Environments\theeng\lib\site-packages\pandas\core\indexes\base.py:6056(_get_indexer_strict)
        2    0.000    0.000    0.000    0.000 c:\Virtual_Environments\theeng\lib\site-packages\plotly\basedatatypes.py:1443(<listcomp>)
        3    0.000    0.000    0.005    0.002 c:\Virtual_Environments\theeng\lib\site-packages\plotly\graph_objs\histogram\marker\_pattern.py:417(__init__)
       16    0.000    0.000    0.000    0.000 c:\Virtual_Environments\theeng\lib\site-packages\pandas\io\formats\format.py:1438(__init__)
        4    0.000    0.000    0.000    0.000 c:\Virtual_Environments\theeng\lib\site-packages\pandas\core\indexes\base.py:6087(_raise_if_missing)
       13    0.000    0.000    0.006    0.000 c:\Virtual_Environments\theeng\lib\site-packages\pandas\core\frame.py:4164(_set_item)
       11    0.000    0.000    0.000    0.000 c:\Virtual_Environments\theeng\lib\site-packages\pandas\core\internals\managers.py:2398(_fast_count_smallints)
       23    0.000    0.000    0.000    0.000 C:\Engineering Programs\FreeCAD 0.20\Mod\Fem\femmesh\meshsetsgetter.py:1030(get_elset_name_standard)
        1    0.000    0.000    0.000    0.000 c:\Virtual_Environments\theeng\lib\site-packages\plotly\graph_objs\scattermapbox\marker\_colorbar.py:5(ColorBar)
       10    0.000    0.000    0.003    0.000 c:\Virtual_Environments\theeng\lib\site-packages\pandas\core\generic.py:3894(_take_with_is_copy)
        3    0.000    0.000    0.010    0.003 c:\Virtual_Environments\theeng\lib\site-packages\plotly\graph_objs\scatterpolargl\_marker.py:1200(__init__)
        1    0.000    0.000    0.000    0.000 c:\Virtual_Environments\theeng\lib\site-packages\plotly\graph_objs\layout\polar\_radialaxis.py:5(RadialAxis)
        1    0.000    0.000    0.000    0.000 c:\Virtual_Environments\theeng\lib\site-packages\plotly\graph_objs\layout\ternary\_aaxis.py:5(Aaxis)
        4    0.000    0.000    0.000    0.000 c:\Virtual_Environments\theeng\lib\site-packages\pandas\core\sorting.py:157(<listcomp>)
      138    0.000    0.000    0.000    0.000 {method 'locked' of '_thread.lock' objects}
       23    0.000    0.000    0.000    0.000 C:\Python38\lib\ntpath.py:214(basename)
       30    0.000    0.000    0.000    0.000 C:\Python38\lib\types.py:171(__get__)
       16    0.000    0.000    0.001    0.000 c:\Virtual_Environments\theeng\lib\site-packages\pandas\core\nanops.py:403(new_func)
       92    0.000    0.000    0.000    0.000 {built-in method sys.audit}
        6    0.000    0.000    0.010    0.002 c:\Virtual_Environments\theeng\lib\site-packages\plotly\graph_objs\layout\_coloraxis.py:559(__init__)
        1    0.000    0.000    0.000    0.000 c:\Virtual_Environments\theeng\lib\site-packages\pandas\core\apply.py:896(apply_series_generator)
       67    0.000    0.000    0.000    0.000 c:\Virtual_Environments\theeng\lib\site-packages\numpy\lib\function_base.py:871(copy)
        1    0.000    0.000    0.000    0.000 c:\Virtual_Environments\theeng\lib\site-packages\plotly\graph_objs\_barpolar.py:5(Barpolar)
        3    0.000    0.000    0.002    0.001 c:\Virtual_Environments\theeng\lib\site-packages\plotly\graph_objs\bar\_error_y.py:424(__init__)
        3    0.000    0.000    0.005    0.002 c:\Virtual_Environments\theeng\lib\site-packages\plotly\graph_objs\bar\marker\_pattern.py:417(__init__)
        3    0.000    0.000    0.009    0.003 c:\Virtual_Environments\theeng\lib\site-packages\plotly\graph_objs\scattergl\_marker.py:1200(__init__)
        3    0.000    0.000    0.010    0.003 c:\Virtual_Environments\theeng\lib\site-packages\plotly\graph_objs\scattermapbox\_marker.py:1021(__init__)
        3    0.000    0.000    0.006    0.002 c:\Virtual_Environments\theeng\lib\site-packages\plotly\graph_objs\scatter\_fillpattern.py:417(__init__)
      200    0.000    0.000    0.000    0.000 c:\Virtual_Environments\theeng\lib\site-packages\pymoo\core\individual.py:100(G)
       10    0.000    0.000    0.000    0.000 c:\Virtual_Environments\theeng\lib\site-packages\pandas\core\dtypes\astype.py:239(astype_array_safe)
        9    0.000    0.000    0.005    0.001 C:\Python38\lib\json\__init__.py:183(dumps)
       96    0.000    0.000    0.000    0.000 c:\Virtual_Environments\theeng\lib\site-packages\sklearn\utils\_param_validation.py:547(<genexpr>)
       38    0.000    0.000    0.000    0.000 {method 'set' of 'ContextVar' objects}
       38    0.000    0.000    0.000    0.000 C:\Python38\lib\os.py:734(check_str)
       22    0.000    0.000    0.005    0.000 c:\Virtual_Environments\theeng\lib\site-packages\plotly\basedatatypes.py:2645(_is_key_path_compatible)
      193    0.000    0.000    0.000    0.000 C:\Python38\lib\typing.py:1149(cast)
        2    0.000    0.000    0.008    0.004 c:\Virtual_Environments\theeng\lib\site-packages\plotly\express\_core.py:526(configure_axes)
        3    0.000    0.000    0.000    0.000 C:\Python38\lib\shutil.py:1312(get_terminal_size)
        4    0.000    0.000    0.000    0.000 C:\Python38\lib\uuid.py:132(__init__)
        3    0.000    0.000    0.000    0.000 C:\Python38\lib\pathlib.py:658(_parse_args)
        6    0.000    0.000    0.003    0.000 c:\Virtual_Environments\theeng\lib\site-packages\plotly\graph_objs\layout\_hoverlabel.py:310(__init__)
       69    0.000    0.000    0.000    0.000 C:\Python38\lib\subprocess.py:1336(_internal_poll)
        4    0.000    0.000    0.000    0.000 c:\Virtual_Environments\theeng\lib\site-packages\pandas\_config\config.py:142(_set_option)
        5    0.000    0.000    0.000    0.000 c:\Virtual_Environments\theeng\lib\site-packages\pandas\core\indexes\base.py:1752(_validate_names)
       41    0.000    0.000    0.000    0.000 C:\Python38\lib\sre_parse.py:168(__setitem__)
        3    0.000    0.000    0.001    0.000 c:\Virtual_Environments\theeng\lib\site-packages\pandas\core\frame.py:7599(_dispatch_frame_op)
        6    0.000    0.000    0.000    0.000 c:\Virtual_Environments\theeng\lib\site-packages\sklearn\model_selection\_split.py:59(split)
        3    0.000    0.000    0.012    0.004 c:\Virtual_Environments\theeng\lib\site-packages\plotly\graph_objs\table\_cells.py:436(__init__)
       29    0.000    0.000    0.000    0.000 <__array_function__ internals>:177(swapaxes)
        3    0.000    0.000    0.003    0.001 c:\Virtual_Environments\theeng\lib\site-packages\plotly\graph_objs\bar\_error_x.py:445(__init__)
        1    0.000    0.000    0.000    0.000 c:\Virtual_Environments\theeng\lib\site-packages\plotly\graph_objs\scatterpolar\marker\_colorbar.py:5(ColorBar)
        1    0.000    0.000    0.000    0.000 c:\Virtual_Environments\theeng\lib\site-packages\plotly\graph_objs\layout\scene\_zaxis.py:5(ZAxis)
       22    0.000    0.000    0.000    0.000 c:\Virtual_Environments\theeng\lib\site-packages\numpy\core\fromnumeric.py:1038(argsort)
        6    0.000    0.000    0.003    0.000 c:\Virtual_Environments\theeng\lib\site-packages\plotly\graph_objs\layout\_font.py:144(__init__)
      200    0.000    0.000    0.000    0.000 c:\Virtual_Environments\theeng\lib\site-packages\pymoo\core\individual.py:108(H)
        5    0.000    0.000    0.021    0.004 c:\Virtual_Environments\theeng\lib\site-packages\sklearn\utils\parallel.py:111(__call__)
        5    0.000    0.000    0.006    0.001 c:\Virtual_Environments\theeng\lib\site-packages\sklearn\pipeline.py:689(score)
        3    0.000    0.000    0.015    0.005 c:\Virtual_Environments\theeng\lib\site-packages\plotly\graph_objs\bar\_marker.py:952(__init__)
        1    0.000    0.000    0.000    0.000 c:\Virtual_Environments\theeng\lib\site-packages\plotly\graph_objs\_scattercarpet.py:5(Scattercarpet)
      160    0.000    0.000    0.000    0.000 c:\Virtual_Environments\theeng\lib\site-packages\numpy\lib\arraysetops.py:133(_unique_dispatcher)
       83    0.000    0.000    0.000    0.000 {method 'find' of 'bytearray' objects}
        6    0.000    0.000    0.005    0.001 c:\Virtual_Environments\theeng\lib\site-packages\_plotly_utils\utils.py:51(encode)
        4    0.000    0.000    0.000    0.000 c:\Virtual_Environments\theeng\lib\site-packages\pandas\core\internals\managers.py:2182(create_block_manager_from_column_arrays)
        1    0.000    0.000    0.025    0.025 c:\Virtual_Environments\theeng\lib\site-packages\joblib\parallel.py:1000(__call__)
       15    0.000    0.000    0.000    0.000 c:\Virtual_Environments\theeng\lib\site-packages\_plotly_utils\basevalidators.py:626(__init__)
        3    0.000    0.000    0.004    0.001 c:\Virtual_Environments\theeng\lib\site-packages\plotly\graph_objs\barpolar\marker\_line.py:465(__init__)
        3    0.000    0.000    0.012    0.004 c:\Virtual_Environments\theeng\lib\site-packages\plotly\graph_objs\table\_header.py:436(__init__)
       33    0.000    0.000    0.000    0.000 <__array_function__ internals>:177(result_type)
      174    0.000    0.000    0.000    0.000 c:\Virtual_Environments\theeng\lib\site-packages\numpy\core\fromnumeric.py:432(_repeat_dispatcher)
       20    0.000    0.000    0.000    0.000 c:\Virtual_Environments\theeng\lib\site-packages\pandas\io\formats\format.py:1332(__init__)
       12    0.000    0.000    0.003    0.000 c:\Virtual_Environments\theeng\lib\site-packages\scipy\sparse\_base.py:983(tocsr)
        9    0.000    0.000    0.000    0.000 c:\Virtual_Environments\theeng\lib\site-packages\pymoo\util\ref_dirs\optimizer.py:11(next)
        3    0.000    0.000    0.000    0.000 C:\Python38\lib\pathlib.py:1039(__new__)
       76    0.000    0.000    0.000    0.000 c:\Virtual_Environments\theeng\lib\site-packages\pandas\core\internals\blocks.py:500(dtype)
        1    0.000    0.000    0.000    0.000 c:\Virtual_Environments\theeng\lib\site-packages\plotly\graph_objs\scattergeo\marker\_colorbar.py:5(ColorBar)
       25    0.000    0.000    0.000    0.000 <__array_function__ internals>:177(dot)
       49    0.000    0.000    0.000    0.000 c:\Virtual_Environments\theeng\lib\site-packages\pandas\core\indexes\base.py:839(is_)
       20    0.000    0.000    0.000    0.000 c:\Virtual_Environments\theeng\lib\site-packages\pymoo\core\termination.py:15(update)
       29    0.000    0.000    0.000    0.000 <__array_function__ internals>:177(flatnonzero)
       14    0.000    0.000    0.000    0.000 c:\Virtual_Environments\theeng\lib\site-packages\pandas\core\internals\construction.py:540(_prep_ndarraylike)
       12    0.000    0.000    0.004    0.000 c:\Virtual_Environments\theeng\lib\site-packages\scipy\sparse\_base.py:510(_mul_dispatch)
      192    0.000    0.000    0.000    0.000 {method 'bit_length' of 'int' objects}
        3    0.000    0.000    0.004    0.001 c:\Virtual_Environments\theeng\lib\site-packages\plotly\graph_objs\bar\marker\_line.py:465(__init__)
       10    0.000    0.000    0.000    0.000 c:\Virtual_Environments\theeng\lib\site-packages\pandas\core\indexes\base.py:3975(_get_indexer)
        7    0.000    0.000    0.000    0.000 c:\Virtual_Environments\theeng\lib\site-packages\pandas\core\frame.py:951(_values)
       23    0.000    0.000    0.000    0.000 C:\Python38\lib\multiprocessing\context.py:41(cpu_count)
       23    0.000    0.000    0.000    0.000 C:\Engineering Programs\FreeCAD 0.20\Mod\Fem\femmesh\meshsetsgetter.py:339(get_constraints_pressure_faces)
        1    0.000    0.000    0.000    0.000 c:\Virtual_Environments\theeng\lib\site-packages\numpy\core\_methods.py:198(_var)
        1    0.000    0.000    0.000    0.000 {method 'getObject' of 'App.Document' objects}
       26    0.000    0.000    0.000    0.000 c:\Virtual_Environments\theeng\lib\site-packages\pandas\core\dtypes\common.py:537(is_string_or_object_np_dtype)
       22    0.000    0.000    0.001    0.000 c:\Virtual_Environments\theeng\lib\site-packages\pandas\core\generic.py:5977(f)
        9    0.000    0.000    0.001    0.000 c:\Virtual_Environments\theeng\lib\site-packages\pandas\core\internals\managers.py:751(<listcomp>)
      158    0.000    0.000    0.000    0.000 c:\Virtual_Environments\theeng\lib\site-packages\numpy\lib\shape_base.py:1187(_tile_dispatcher)
        8    0.000    0.000    0.000    0.000 c:\Virtual_Environments\theeng\lib\site-packages\pandas\core\internals\managers.py:271(get_dtypes)
       12    0.000    0.000    0.001    0.000 c:\Virtual_Environments\theeng\lib\site-packages\_plotly_utils\basevalidators.py:1764(validate_coerce)
        3    0.000    0.000    0.000    0.000 c:\Virtual_Environments\theeng\lib\site-packages\plotly\_subplots.py:1202(_build_grid_str)
       11    0.000    0.000    0.000    0.000 c:\Virtual_Environments\theeng\lib\site-packages\_plotly_utils\basevalidators.py:1523(__init__)
        1    0.000    0.000    0.000    0.000 c:\Virtual_Environments\theeng\lib\site-packages\plotly\graph_objs\scatterternary\marker\_colorbar.py:5(ColorBar)
        3    0.000    0.000    0.000    0.000 c:\Virtual_Environments\theeng\lib\site-packages\numpy\lib\function_base.py:1320(diff)
        3    0.000    0.000    0.010    0.003 c:\Virtual_Environments\theeng\lib\site-packages\plotly\graph_objs\histogram\_marker.py:953(__init__)
       69    0.000    0.000    0.000    0.000 c:\Virtual_Environments\theeng\lib\site-packages\pandas\core\construction.py:733(_maybe_repeat)
        9    0.000    0.000    0.896    0.100 c:\Virtual_Environments\theeng\lib\site-packages\plotly\basedatatypes.py:1369(update_layout)
       18    0.000    0.000    0.000    0.000 c:\Virtual_Environments\theeng\lib\site-packages\pandas\core\dtypes\cast.py:527(maybe_promote)
        1    0.000    0.000    0.000    0.000 c:\Virtual_Environments\theeng\lib\site-packages\plotly\graph_objs\scatter3d\line\_colorbar.py:5(ColorBar)
       33    0.000    0.000    0.000    0.000 C:\Python38\lib\sre_compile.py:423(_simple)
        3    0.000    0.000    0.000    0.000 {function Random.seed at 0x0000013DF3ECFE50}
        1    0.000    0.000    0.000    0.000 c:\Virtual_Environments\theeng\lib\site-packages\plotly\graph_objs\mesh3d\_colorbar.py:5(ColorBar)
        1    0.000    0.000    0.000    0.000 c:\Virtual_Environments\theeng\lib\site-packages\plotly\graph_objs\parcoords\line\_colorbar.py:5(ColorBar)
        2    0.000    0.000    0.001    0.000 c:\Virtual_Environments\theeng\lib\site-packages\pandas\io\formats\format.py:919(_get_formatted_column_labels)
        1    0.000    0.000    0.000    0.000 c:\Virtual_Environments\theeng\lib\site-packages\pandas\core\groupby\grouper.py:702(get_grouper)
     20/5    0.000    0.000    0.002    0.000 c:\Virtual_Environments\theeng\lib\site-packages\sklearn\base.py:67(<listcomp>)
        3    0.000    0.000    0.009    0.003 c:\Virtual_Environments\theeng\lib\site-packages\plotly\graph_objs\scatter3d\_line.py:758(__init__)
        9    0.000    0.000    0.000    0.000 c:\Virtual_Environments\theeng\lib\site-packages\numpy\lib\index_tricks.py:786(fill_diagonal)
       10    0.000    0.000    0.000    0.000 c:\Virtual_Environments\theeng\lib\site-packages\plotly\basedatatypes.py:5672(__init__)
       23    0.000    0.000    0.000    0.000 {built-in method FreeCAD.activeDocument}
        1    0.000    0.000    0.000    0.000 c:\Virtual_Environments\theeng\lib\site-packages\plotly\graph_objs\histogram2dcontour\_colorbar.py:5(ColorBar)
        1    0.000    0.000    0.000    0.000 c:\Virtual_Environments\theeng\lib\site-packages\plotly\graph_objs\_scatterpolargl.py:5(Scatterpolargl)
       21    0.000    0.000    0.000    0.000 C:\Python38\lib\copyreg.py:99(_slotnames)
       17    0.000    0.000    0.000    0.000 c:\Virtual_Environments\theeng\lib\site-packages\pandas\core\internals\blocks.py:236(make_block_same_class)
       40    0.000    0.000    0.000    0.000 {method 'get_loc' of 'pandas._libs.index.IndexEngine' objects}
       10    0.000    0.000    0.000    0.000 c:\Virtual_Environments\theeng\lib\site-packages\pandas\core\indexes\base.py:6285(_should_compare)
       28    0.000    0.000    0.000    0.000 C:\Python38\lib\ntpath.py:34(_get_bothseps)
        1    0.000    0.000    0.000    0.000 c:\Virtual_Environments\theeng\lib\site-packages\plotly\graph_objs\_scatterpolar.py:5(Scatterpolar)
        1    0.000    0.000    0.000    0.000 c:\Virtual_Environments\theeng\lib\site-packages\plotly\graph_objs\_scatterternary.py:5(Scatterternary)
        1    0.000    0.000    0.000    0.000 c:\Virtual_Environments\theeng\lib\site-packages\plotly\graph_objs\layout\polar\_angularaxis.py:5(AngularAxis)
        1    0.000    0.000    0.000    0.000 c:\Virtual_Environments\theeng\lib\site-packages\plotly\graph_objs\layout\ternary\_baxis.py:5(Baxis)
       23    0.000    0.000    0.001    0.000 C:\Python38\lib\tempfile.py:279(gettempdir)
       16    0.000    0.000    0.001    0.000 c:\Virtual_Environments\theeng\lib\site-packages\sklearn\utils\metaestimators.py:30(_get_params)
        1    0.000    0.000    0.087    0.087 c:\Virtual_Environments\theeng\lib\site-packages\theeng\algorithms\visualizations.py:27(heatMap)
       38    0.000    0.000    0.000    0.000 c:\Virtual_Environments\theeng\lib\site-packages\plotly\express\_core.py:135(get_label)
        1    0.000    0.000    0.000    0.000 c:\Virtual_Environments\theeng\lib\site-packages\plotly\graph_objs\_scattergeo.py:5(Scattergeo)
       19    0.000    0.000    0.000    0.000 C:\Python38\lib\sre_parse.py:84(opengroup)
        9    0.000    0.000    0.005    0.001 C:\Python38\lib\json\encoder.py:182(encode)
       13    0.000    0.000    0.000    0.000 c:\Virtual_Environments\theeng\lib\site-packages\scipy\sparse\_sputils.py:22(upcast)
       54    0.000    0.000    0.000    0.000 c:\Virtual_Environments\theeng\lib\site-packages\pandas\core\indexing.py:1064(<genexpr>)
      144    0.000    0.000    0.000    0.000 c:\Virtual_Environments\theeng\lib\site-packages\scipy\sparse\_base.py:119(get_shape)
        1    0.000    0.000    0.000    0.000 c:\Virtual_Environments\theeng\lib\site-packages\plotly\graph_objs\scatter3d\marker\_colorbar.py:5(ColorBar)
        1    0.000    0.000    0.000    0.000 c:\Virtual_Environments\theeng\lib\site-packages\plotly\graph_objs\surface\_colorbar.py:5(ColorBar)
       80    0.000    0.000    0.000    0.000 C:\Python38\lib\sre_parse.py:81(groups)
        3    0.000    0.000    0.000    0.000 c:\Virtual_Environments\theeng\lib\site-packages\pandas\core\internals\ops.py:55(operate_blockwise)
       21    0.000    0.000    0.000    0.000 {built-in method _sre.compile}
        1    0.000    0.000    0.000    0.000 {pandas._libs.algos.groupsort_indexer}
        1    0.000    0.000    0.000    0.000 c:\Virtual_Environments\theeng\lib\site-packages\plotly\graph_objs\_treemap.py:5(Treemap)
        1    0.000    0.000    0.000    0.000 c:\Virtual_Environments\theeng\lib\site-packages\plotly\graph_objs\choropleth\_colorbar.py:5(ColorBar)
        1    0.000    0.000    0.000    0.000 c:\Virtual_Environments\theeng\lib\site-packages\plotly\graph_objs\_heatmapgl.py:5(Heatmapgl)
       50    0.000    0.000    0.000    0.000 c:\Virtual_Environments\theeng\lib\site-packages\numpy\core\_methods.py:39(_amax)
       23    0.000    0.000    0.000    0.000 c:\Virtual_Environments\theeng\lib\site-packages\theeng\core\ranker.py:55(<lambda>)
        8    0.000    0.000    0.000    0.000 c:\Virtual_Environments\theeng\lib\site-packages\pandas\core\internals\managers.py:272(<listcomp>)
       47    0.000    0.000    0.000    0.000 {built-in method _stat.S_ISREG}
        6    0.000    0.000    0.000    0.000 c:\Virtual_Environments\theeng\lib\site-packages\sklearn\pipeline.py:214(_validate_steps)
        1    0.000    0.000    0.000    0.000 c:\Virtual_Environments\theeng\lib\site-packages\plotly\graph_objs\scattergl\marker\_colorbar.py:5(ColorBar)
       32    0.000    0.000    0.000    0.000 c:\Virtual_Environments\theeng\lib\site-packages\pandas\io\formats\format.py:1614(<lambda>)
        1    0.000    0.000    0.012    0.012 c:\Virtual_Environments\theeng\lib\site-packages\pandas\io\formats\string.py:159(_fit_strcols_to_terminal_width)
        1    0.000    0.000    0.000    0.000 c:\Virtual_Environments\theeng\lib\site-packages\plotly\graph_objs\heatmapgl\_colorbar.py:5(ColorBar)
       33    0.000    0.000    0.000    0.000 <__array_function__ internals>:177(nonzero)
      162    0.000    0.000    0.000    0.000 {built-in method _operator.index}
       13    0.000    0.000    0.001    0.000 c:\Virtual_Environments\theeng\lib\site-packages\pandas\core\frame.py:4234(_ensure_valid_index)
       12    0.000    0.000    0.007    0.001 c:\Virtual_Environments\theeng\lib\site-packages\sklearn\base.py:831(fit_transform)
        3    0.000    0.000    0.010    0.003 c:\Virtual_Environments\theeng\lib\site-packages\plotly\graph_objs\parcoords\_line.py:710(__init__)
        3    0.000    0.000    0.000    0.000 {built-in method builtins.locals}
       23    0.000    0.000    0.000    0.000 C:\Engineering Programs\FreeCAD 0.20\Mod\Fem\femsolver\calculix\write_step_equation.py:151(write_step_end)
        5    0.000    0.000    0.000    0.000 C:\Python38\lib\json\decoder.py:332(decode)
        4    0.000    0.000    0.001    0.000 c:\Virtual_Environments\theeng\lib\site-packages\pandas\core\frame.py:3832(_getitem_bool_array)
       12    0.000    0.000    0.004    0.000 c:\Virtual_Environments\theeng\lib\site-packages\scipy\sparse\_base.py:599(_mul_multivector)
        1    0.000    0.000    0.000    0.000 c:\Virtual_Environments\theeng\lib\site-packages\plotly\graph_objs\_sunburst.py:5(Sunburst)
        1    0.000    0.000    0.000    0.000 c:\Virtual_Environments\theeng\lib\site-packages\plotly\graph_objs\layout\template\_data.py:5(Data)
       22    0.000    0.000    0.001    0.000 c:\Virtual_Environments\theeng\lib\site-packages\pandas\core\internals\managers.py:673(consolidate)
        1    0.000    0.000    0.000    0.000 c:\Virtual_Environments\theeng\lib\site-packages\joblib\parallel.py:669(__init__)
        2    0.000    0.000    0.001    0.001 c:\Virtual_Environments\theeng\lib\site-packages\plotly\basedatatypes.py:1396(_select_layout_subplots_by_prefix)
       21    0.000    0.000    0.000    0.000 c:\Virtual_Environments\theeng\lib\site-packages\plotly\basedatatypes.py:2667(_relayout_child)
        4    0.000    0.000    0.002    0.001 c:\Virtual_Environments\theeng\lib\site-packages\plotly\graph_objs\layout\xaxis\_title.py:136(__init__)
       36    0.000    0.000    0.000    0.000 c:\Virtual_Environments\theeng\lib\site-packages\pandas\core\indexing.py:2629(is_label_like)
       15    0.000    0.000    0.000    0.000 C:\Python38\lib\copy.py:209(_deepcopy_tuple)
        2    0.000    0.000    0.000    0.000 c:\Virtual_Environments\theeng\lib\site-packages\pandas\core\reshape\concat.py:565(get_result)
       19    0.000    0.000    0.000    0.000 c:\Virtual_Environments\theeng\lib\site-packages\pandas\core\internals\blocks.py:221(make_block)
        1    0.000    0.000    0.000    0.000 c:\Virtual_Environments\theeng\lib\site-packages\plotly\graph_objs\layout\_geo.py:5(Geo)
        1    0.000    0.000    0.001    0.001 c:\Virtual_Environments\theeng\lib\site-packages\numpy\lib\function_base.py:5054(delete)
        6    0.000    0.000    0.003    0.001 c:\Virtual_Environments\theeng\lib\site-packages\sklearn\model_selection\_validation.py:266(<genexpr>)
        6    0.000    0.000    0.000    0.000 c:\Virtual_Environments\theeng\lib\site-packages\sklearn\utils\validation.py:1716(_check_sample_weight)
        6    0.000    0.000    0.000    0.000 c:\Virtual_Environments\theeng\lib\site-packages\sklearn\utils\metaestimators.py:82(_validate_names)
        6    0.000    0.000    0.000    0.000 c:\Virtual_Environments\theeng\lib\site-packages\plotly\_subplots.py:854(_configure_shared_axes)
       15    0.000    0.000    0.000    0.000 c:\Virtual_Environments\theeng\lib\site-packages\_plotly_utils\utils.py:184(encode_as_numpy)
        1    0.000    0.000    0.000    0.000 c:\Virtual_Environments\theeng\lib\site-packages\plotly\graph_objs\_choroplethmapbox.py:5(Choroplethmapbox)
        5    0.000    0.000    0.021    0.004 c:\Virtual_Environments\theeng\lib\site-packages\joblib\parallel.py:801(_dispatch)
       10    0.000    0.000    0.001    0.000 c:\Virtual_Environments\theeng\lib\site-packages\sklearn\utils\metaestimators.py:175(_safe_split)
        1    0.000    0.000    0.000    0.000 c:\Virtual_Environments\theeng\lib\site-packages\plotly\graph_objs\_carpet.py:5(Carpet)
       10    0.000    0.000    0.002    0.000 c:\Virtual_Environments\theeng\lib\site-packages\pandas\core\apply.py:1108(apply)
       13    0.000    0.000    0.000    0.000 c:\Virtual_Environments\theeng\lib\site-packages\pandas\core\generic.py:4137(_check_setitem_copy)
       12    0.000    0.000    0.008    0.001 c:\Virtual_Environments\theeng\lib\site-packages\plotly\basedatatypes.py:2925(_perform_plotly_update)
        1    0.000    0.000    0.000    0.000 c:\Virtual_Environments\theeng\lib\site-packages\plotly\graph_objs\_scattermapbox.py:5(Scattermapbox)
        4    0.000    0.000    0.002    0.001 c:\Virtual_Environments\theeng\lib\site-packages\plotly\graph_objs\layout\yaxis\_title.py:136(__init__)
       22    0.000    0.000    0.000    0.000 c:\Virtual_Environments\theeng\lib\site-packages\pandas\core\dtypes\common.py:1500(is_complex_dtype)
       12    0.000    0.000    0.000    0.000 c:\Virtual_Environments\theeng\lib\site-packages\pandas\core\dtypes\dtypes.py:1247(is_dtype)
       36    0.000    0.000    0.000    0.000 c:\Virtual_Environments\theeng\lib\site-packages\pandas\util\_validators.py:226(validate_bool_kwarg)
        5    0.000    0.000    0.000    0.000 c:\Virtual_Environments\theeng\lib\site-packages\pandas\core\internals\managers.py:1721(as_array)
       20    0.000    0.000    0.001    0.000 c:\Virtual_Environments\theeng\lib\site-packages\pandas\core\internals\managers.py:1864(_consolidate_inplace)
       19    0.000    0.000    0.000    0.000 c:\Virtual_Environments\theeng\lib\site-packages\sklearn\utils\validation.py:394(<listcomp>)
       21    0.000    0.000    0.000    0.000 C:\Python38\lib\sre_parse.py:921(fix_flags)
       13    0.000    0.000    0.000    0.000 c:\Virtual_Environments\theeng\lib\site-packages\pandas\core\internals\blocks.py:2266(ensure_block_shape)
       10    0.000    0.000    0.000    0.000 c:\Virtual_Environments\theeng\lib\site-packages\_plotly_utils\basevalidators.py:1856(vc_scalar)
        1    0.000    0.000    0.025    0.025 c:\Virtual_Environments\theeng\lib\site-packages\sklearn\model_selection\_validation.py:49(cross_validate)
       20    0.000    0.000    0.101    0.005 c:\Virtual_Environments\theeng\lib\site-packages\pymoo\core\problem.py:26(__call__)
       20    0.000    0.000    0.002    0.000 <__array_function__ internals>:177(solve)
       28    0.000    0.000    0.000    0.000 c:\Virtual_Environments\theeng\lib\site-packages\pandas\core\dtypes\base.py:494(find)
       16    0.000    0.000    0.000    0.000 c:\Virtual_Environments\theeng\lib\site-packages\pandas\core\nanops.py:217(_maybe_get_mask)
        4    0.000    0.000    0.001    0.000 c:\Virtual_Environments\theeng\lib\site-packages\pandas\core\indexes\base.py:1465(_format_with_header)
       20    0.000    0.000    0.000    0.000 C:\Python38\lib\sre_parse.py:432(_uniq)
       44    0.000    0.000    0.000    0.000 c:\Virtual_Environments\theeng\lib\site-packages\numpy\core\shape_base.py:207(_arrays_for_stack_dispatcher)
       22    0.000    0.000    0.001    0.000 <__array_function__ internals>:177(argsort)
        1    0.000    0.000    0.000    0.000 c:\Virtual_Environments\theeng\lib\site-packages\pandas\core\internals\managers.py:1782(_interleave)
        5    0.000    0.000    0.000    0.000 c:\Virtual_Environments\theeng\lib\site-packages\joblib\parallel.py:376(__call__)
        1    0.000    0.000    0.000    0.000 c:\Virtual_Environments\theeng\lib\site-packages\plotly\graph_objs\layout\ternary\_caxis.py:5(Caxis)
       64    0.000    0.000    0.000    0.000 C:\Python38\lib\inspect.py:513(_is_wrapper)
       12    0.000    0.000    0.000    0.000 c:\Virtual_Environments\theeng\lib\site-packages\scipy\linalg\lapack.py:1014(_check_work_float)
        6    0.000    0.000    0.000    0.000 c:\Virtual_Environments\theeng\lib\site-packages\sklearn\utils\validation.py:1393(check_non_negative)
       12    0.000    0.000    0.002    0.000 c:\Virtual_Environments\theeng\lib\site-packages\pandas\core\generic.py:11375(max)
       13    0.000    0.000    0.000    0.000 c:\Virtual_Environments\theeng\lib\site-packages\pandas\core\indexes\base.py:5204(_validate_fill_value)
        3    0.000    0.000    0.006    0.002 c:\Virtual_Environments\theeng\lib\site-packages\plotly\basedatatypes.py:3268(to_dict)
        1    0.000    0.000    0.000    0.000 c:\Virtual_Environments\theeng\lib\site-packages\plotly\graph_objs\parcoords\_dimension.py:5(Dimension)
       33    0.000    0.000    0.000    0.000 c:\Virtual_Environments\theeng\lib\site-packages\numpy\core\fromnumeric.py:1892(nonzero)
       54    0.000    0.000    0.000    0.000 c:\Virtual_Environments\theeng\lib\site-packages\pandas\core\series.py:764(__len__)
        1    0.000    0.000    0.003    0.003 c:\Virtual_Environments\theeng\lib\site-packages\theeng\core\ranker.py:12(__init__)
        3    0.000    0.000    0.003    0.001 c:\Virtual_Environments\theeng\lib\site-packages\plotly\graph_objs\table\cells\_line.py:147(__init__)
        2    0.000    0.000    0.000    0.000 c:\Virtual_Environments\theeng\lib\site-packages\pandas\core\internals\concat.py:176(concatenate_managers)
        6    0.000    0.000    0.000    0.000 c:\Virtual_Environments\theeng\lib\site-packages\sklearn\model_selection\_split.py:453(_iter_test_indices)
        6    0.000    0.000    0.000    0.000 c:\Virtual_Environments\theeng\lib\site-packages\plotly\tools.py:693(get_config_plotly_server_url)
        3    0.000    0.000    0.002    0.001 c:\Virtual_Environments\theeng\lib\site-packages\plotly\graph_objs\table\header\_line.py:147(__init__)
       24    0.000    0.000    0.000    0.000 <__array_function__ internals>:177(empty_like)
       42    0.000    0.000    0.000    0.000 C:\Python38\lib\sre_compile.py:595(isstring)
       20    0.000    0.000    0.000    0.000 c:\Virtual_Environments\theeng\lib\site-packages\pymoo\core\population.py:24(apply)
        1    0.000    0.000    0.935    0.935 c:\Virtual_Environments\theeng\lib\site-packages\theeng\algorithms\visualizations.py:10(scatterPlot)
        5    0.000    0.000    0.006    0.001 c:\Virtual_Environments\theeng\lib\site-packages\sklearn\metrics\_scorer.py:106(__call__)
        3    0.000    0.000    0.008    0.003 c:\Virtual_Environments\theeng\lib\site-packages\plotly\basedatatypes.py:2498(_initialize_layout_template)
       18    0.000    0.000    0.000    0.000 c:\Virtual_Environments\theeng\lib\site-packages\pandas\core\indexing.py:881(_is_nested_tuple_indexer)
        4    0.000    0.000    0.000    0.000 c:\Virtual_Environments\theeng\lib\site-packages\numpy\core\numeric.py:2407(array_equal)
        1    0.000    0.000    0.000    0.000 c:\Virtual_Environments\theeng\lib\site-packages\plotly\graph_objs\_image.py:5(Image)
        3    0.000    0.000    0.000    0.000 c:\Virtual_Environments\theeng\lib\site-packages\pandas\core\dtypes\cast.py:1589(find_common_type)
       22    0.000    0.000    0.001    0.000 c:\Virtual_Environments\theeng\lib\site-packages\pandas\core\generic.py:5973(_consolidate_inplace)
        5    0.000    0.000    0.000    0.000 c:\Virtual_Environments\theeng\lib\site-packages\plotly\express\_core.py:196(make_mapping)
        3    0.000    0.000    0.003    0.001 c:\Virtual_Environments\theeng\lib\site-packages\plotly\graph_objs\layout\shape\_line.py:134(__init__)
       19    0.000    0.000    0.001    0.000 <__array_function__ internals>:177(isclose)
       14    0.000    0.000    0.002    0.000 c:\Virtual_Environments\theeng\lib\site-packages\pandas\core\internals\construction.py:739(_get_axes)
       17    0.000    0.000    0.000    0.000 {method 'all' of 'numpy.ndarray' objects}
        1    0.000    0.000    0.000    0.000 c:\Virtual_Environments\theeng\lib\site-packages\plotly\graph_objs\_splom.py:5(Splom)
       37    0.000    0.000    0.000    0.000 c:\Virtual_Environments\theeng\lib\site-packages\pandas\core\generic.py:640(_info_axis)
       48    0.000    0.000    0.000    0.000 c:\Virtual_Environments\theeng\lib\site-packages\scipy\sparse\_compressed.py:108(getnnz)
       14    0.000    0.000    0.000    0.000 c:\Virtual_Environments\theeng\lib\site-packages\pandas\core\common.py:303(maybe_iterable_to_list)
       31    0.000    0.000    0.000    0.000 c:\Virtual_Environments\theeng\lib\site-packages\pandas\core\nanops.py:350(_na_ok_dtype)
        1    0.000    0.000    0.017    0.017 c:\Virtual_Environments\theeng\lib\site-packages\pymoo\algorithms\base\genetic.py:11(__init__)
        3    0.000    0.000    0.000    0.000 {pandas._libs.lib.get_reverse_indexer}
        9    0.000    0.000    0.000    0.000 c:\Virtual_Environments\theeng\lib\site-packages\pymoo\util\ref_dirs\misc.py:43(project_onto_sum_equals_zero_plane)
       39    0.000    0.000    0.000    0.000 c:\Virtual_Environments\theeng\lib\site-packages\pandas\core\common.py:566(require_length_match)
        1    0.000    0.000    0.002    0.002 c:\Virtual_Environments\theeng\lib\site-packages\pandas\core\frame.py:10228(corr)
       23    0.000    0.000    0.000    0.000 C:\Engineering Programs\FreeCAD 0.20\Mod\Fem\femsolver\calculix\write_constraint_fluidsection.py:44(handle_fluidsection_liquid_inlet_outlet)
        3    0.000    0.000    0.002    0.001 c:\Virtual_Environments\theeng\lib\site-packages\plotly\graph_objs\table\cells\_fill.py:107(__init__)
        4    0.000    0.000    0.000    0.000 c:\Virtual_Environments\theeng\lib\site-packages\sklearn\base.py:273(__getstate__)
        2    0.000    0.000    0.000    0.000 c:\Virtual_Environments\theeng\lib\site-packages\pandas\core\dtypes\astype.py:68(astype_nansafe)
        3    0.000    0.000    0.001    0.000 c:\Virtual_Environments\theeng\lib\site-packages\pandas\core\internals\managers.py:1546(reduce)
        1    0.000    0.000    0.017    0.017 c:\Virtual_Environments\theeng\lib\site-packages\pymoo\core\algorithm.py:19(__init__)
       10    0.000    0.000    0.002    0.000 c:\Virtual_Environments\theeng\lib\site-packages\pandas\core\series.py:4661(apply)
        2    0.000    0.000    0.000    0.000 {pandas._libs.missing.is_float_nan}
        5    0.000    0.000    0.000    0.000 c:\Virtual_Environments\theeng\lib\site-packages\_plotly_utils\basevalidators.py:1735(__init__)
        5    0.000    0.000    0.001    0.000 c:\Virtual_Environments\theeng\lib\site-packages\sklearn\metrics\_regression.py:66(_check_reg_targets)
        3    0.000    0.000    0.002    0.001 c:\Virtual_Environments\theeng\lib\site-packages\plotly\graph_objs\table\header\_fill.py:107(__init__)
        1    0.000    0.000    0.251    0.251 c:\Virtual_Environments\theeng\lib\site-packages\pymoo\core\algorithm.py:139(run)
       10    0.000    0.000    0.000    0.000 c:\Virtual_Environments\theeng\lib\site-packages\pandas\core\indexes\base.py:4020(_check_indexing_method)
        2    0.000    0.000    0.000    0.000 c:\Virtual_Environments\theeng\lib\site-packages\pandas\io\formats\format.py:960(_get_formatted_index)
       12    0.000    0.000    0.000    0.000 c:\Virtual_Environments\theeng\lib\site-packages\plotly\express\_core.py:154(_is_continuous)
       18    0.000    0.000    0.000    0.000 c:\Virtual_Environments\theeng\lib\site-packages\pandas\core\dtypes\missing.py:699(is_valid_na_for_dtype)
       12    0.000    0.000    0.000    0.000 c:\Virtual_Environments\theeng\lib\site-packages\pandas\core\nanops.py:1492(check_below_min_count)
       21    0.000    0.000    0.000    0.000 <__array_function__ internals>:177(ndim)
       12    0.000    0.000    0.000    0.000 c:\Virtual_Environments\theeng\lib\site-packages\pandas\core\frame.py:12012(_reindex_for_setitem)
        5    0.000    0.000    0.000    0.000 {built-in method nt.urandom}
        5    0.000    0.000    0.000    0.000 c:\Virtual_Environments\theeng\lib\site-packages\plotly\basedatatypes.py:4912(__iter__)
       31    0.000    0.000    0.000    0.000 C:\Python38\lib\copyreg.py:90(__newobj__)
       18    0.000    0.000    0.000    0.000 c:\Virtual_Environments\theeng\lib\site-packages\scipy\sparse\_sputils.py:216(isintlike)
       12    0.000    0.000    0.000    0.000 c:\Virtual_Environments\theeng\lib\site-packages\pandas\core\dtypes\common.py:463(is_interval_dtype)
       75    0.000    0.000    0.000    0.000 c:\Virtual_Environments\theeng\lib\site-packages\pandas\core\internals\managers.py:238(items)
       13    0.000    0.000    0.000    0.000 c:\Virtual_Environments\theeng\lib\site-packages\pandas\core\internals\managers.py:1917(from_blocks)
        7    0.000    0.000    0.000    0.000 C:\Engineering Programs\FreeCAD 0.20\Mod\Fem\femtools\migrate_app.py:38(find_module)
        3    0.000    0.000    0.000    0.000 c:\Virtual_Environments\theeng\lib\site-packages\pymoo\util\reference_direction.py:74(get_number_of_uniform_points)
       11    0.000    0.000    0.000    0.000 c:\Virtual_Environments\theeng\lib\site-packages\pandas\core\dtypes\missing.py:645(na_value_for_dtype)
    24/21    0.000    0.000    0.001    0.000 c:\Virtual_Environments\theeng\lib\site-packages\plotly\basedatatypes.py:5446(_relayout_child)
       29    0.000    0.000    0.000    0.000 c:\Virtual_Environments\theeng\lib\site-packages\numpy\core\fromnumeric.py:550(swapaxes)
        6    0.000    0.000    0.000    0.000 c:\Virtual_Environments\theeng\lib\site-packages\numpy\core\_methods.py:281(_ptp)
      152    0.000    0.000    0.000    0.000 {pandas._libs.lib.is_float}
        1    0.000    0.000    0.000    0.000 {function SeedSequence.generate_state at 0x0000013DF3EAD940}
       28    0.000    0.000    0.000    0.000 c:\Virtual_Environments\theeng\lib\site-packages\plotly\express\_core.py:158(get_decorated_label)
        4    0.000    0.000    0.000    0.000 c:\Virtual_Environments\theeng\lib\site-packages\pandas\core\array_algos\take.py:288(_get_take_nd_function_cached)
       10    0.000    0.000    0.000    0.000 c:\Virtual_Environments\theeng\lib\site-packages\pandas\core\apply.py:1089(__init__)
        4    0.000    0.000    0.000    0.000 c:\Virtual_Environments\theeng\lib\site-packages\pandas\core\ops\array_ops.py:185(arithmetic_op)
        1    0.000    0.000    0.000    0.000 c:\Virtual_Environments\theeng\lib\site-packages\plotly\graph_objs\scatter\_marker.py:5(Marker)
       30    0.000    0.000    0.000    0.000 c:\Virtual_Environments\theeng\lib\site-packages\scipy\sparse\_data.py:20(__init__)
       41    0.000    0.000    0.017    0.000 c:\Virtual_Environments\theeng\lib\site-packages\pymoo\util\function_loader.py:49(get_instance)
       93    0.000    0.000    0.000    0.000 {pandas._libs.lib.item_from_zerodim}
        6    0.000    0.000    0.003    0.001 c:\Virtual_Environments\theeng\lib\site-packages\sklearn\utils\parallel.py:59(<genexpr>)
        6    0.000    0.000    0.000    0.000 c:\Virtual_Environments\theeng\lib\site-packages\pandas\core\dtypes\missing.py:564(_array_equivalent_object)
       20    0.000    0.000    0.000    0.000 c:\Virtual_Environments\theeng\lib\site-packages\theeng\core\sampler.py:88(<dictcomp>)
        3    0.000    0.000    0.000    0.000 C:\Python38\lib\pathlib.py:146(splitroot)
      136    0.000    0.000    0.000    0.000 c:\Virtual_Environments\theeng\lib\site-packages\pandas\core\base.py:324(ndim)
       14    0.000    0.000    0.000    0.000 C:\Python38\lib\sre_compile.py:492(_get_charset_prefix)
       30    0.000    0.000    0.000    0.000 c:\Virtual_Environments\theeng\lib\site-packages\pymoo\core\population.py:102(<listcomp>)
        4    0.000    0.000    0.000    0.000 C:\Python38\lib\uuid.py:780(uuid4)
        6    0.000    0.000    0.001    0.000 c:\Virtual_Environments\theeng\lib\site-packages\plotly\offline\offline.py:110(_get_jconfig)
        1    0.000    0.000    0.000    0.000 c:\Virtual_Environments\theeng\lib\site-packages\plotly\graph_objs\layout\_updatemenu.py:5(Updatemenu)
        5    0.000    0.000    0.000    0.000 C:\Python38\lib\queue.py:121(put)
       28    0.000    0.000    0.000    0.000 c:\Virtual_Environments\theeng\lib\site-packages\pandas\core\dtypes\cast.py:1422(sanitize_to_nanoseconds)
        2    0.000    0.000    0.001    0.000 c:\Virtual_Environments\theeng\lib\site-packages\pandas\core\internals\managers.py:2319(_consolidate)
        1    0.000    0.000    0.000    0.000 C:\Python38\lib\ntpath.py:337(expandvars)
       19    0.000    0.000    0.002    0.000 <__array_function__ internals>:177(allclose)
       22    0.000    0.000    0.000    0.000 c:\Virtual_Environments\theeng\lib\site-packages\pandas\core\array_algos\take.py:326(_get_take_nd_function)
        4    0.000    0.000    0.001    0.000 c:\Virtual_Environments\theeng\lib\site-packages\pandas\core\internals\construction.py:100(arrays_to_mgr)
        9    0.000    0.000    0.896    0.100 c:\Virtual_Environments\theeng\lib\site-packages\plotly\graph_objs\_figure.py:749(update_layout)
       20    0.000    0.000    0.000    0.000 c:\Virtual_Environments\theeng\lib\site-packages\theeng\core\sampler.py:92(<listcomp>)
        5    0.000    0.000    0.021    0.004 c:\Virtual_Environments\theeng\lib\site-packages\joblib\parallel.py:284(__call__)
       46    0.000    0.000    0.000    0.000 c:\Virtual_Environments\theeng\lib\site-packages\plotly\basedatatypes.py:2761(<listcomp>)
        4    0.000    0.000    0.000    0.000 c:\Virtual_Environments\theeng\lib\site-packages\pandas\core\indexes\base.py:1054(astype)
       17    0.000    0.000    0.000    0.000 c:\Virtual_Environments\theeng\lib\site-packages\pandas\core\internals\blocks.py:2250(extend_blocks)
       21    0.000    0.000    0.000    0.000 C:\Python38\lib\sre_parse.py:76(__init__)
        3    0.000    0.000    0.000    0.000 C:\Python38\lib\pathlib.py:678(_from_parts)
        4    0.000    0.000    0.000    0.000 c:\Virtual_Environments\theeng\lib\site-packages\pandas\core\indexers\utils.py:430(check_array_indexer)
       24    0.000    0.000    0.000    0.000 {built-in method nt.getpid}
       32    0.000    0.000    0.000    0.000 c:\Virtual_Environments\theeng\lib\site-packages\pandas\core\frame.py:857(axes)
       21    0.000    0.000    0.000    0.000 c:\Virtual_Environments\theeng\lib\site-packages\pandas\io\formats\format.py:429(__init__)
        6    0.000    0.000    0.001    0.000 c:\Virtual_Environments\theeng\lib\site-packages\sklearn\utils\validation.py:981(check_X_y)
        2    0.000    0.000    0.008    0.004 c:\Virtual_Environments\theeng\lib\site-packages\plotly\_subplots.py:1028(_subplot_type_for_trace_type)
       69    0.000    0.000    0.000    0.000 C:\Python38\lib\subprocess.py:232(_cleanup)
        3    0.000    0.000    0.001    0.000 c:\Virtual_Environments\theeng\lib\site-packages\pandas\core\ops\__init__.py:207(align_method_FRAME)
        3    0.000    0.000    0.000    0.000 c:\Virtual_Environments\theeng\lib\site-packages\pandas\core\generic.py:9530(_align_series)
       76    0.000    0.000    0.000    0.000 c:\Virtual_Environments\theeng\lib\site-packages\pandas\core\indexes\base.py:1734(name)
       10    0.000    0.000    0.000    0.000 c:\Virtual_Environments\theeng\lib\site-packages\pandas\core\indexes\base.py:6205(_maybe_promote)
       25    0.000    0.000    0.000    0.000 c:\Virtual_Environments\theeng\lib\site-packages\plotly\basedatatypes.py:5457(_dispatch_change_callbacks)
       38    0.000    0.000    0.000    0.000 c:\Virtual_Environments\theeng\lib\site-packages\numpy\core\numerictypes.py:582(<listcomp>)
       11    0.000    0.000    0.000    0.000 c:\Virtual_Environments\theeng\lib\site-packages\pandas\core\apply.py:112(__init__)
        1    0.000    0.000    0.003    0.003 c:\Virtual_Environments\theeng\lib\site-packages\theeng\algorithms\rankers.py:77(_normalization)
        1    0.000    0.000    0.000    0.000 c:\Virtual_Environments\theeng\lib\site-packages\pandas\core\groupby\groupby.py:922(__init__)
        1    0.000    0.000    0.002    0.002 c:\Virtual_Environments\theeng\lib\site-packages\pymoo\core\algorithm.py:101(setup)
        5    0.000    0.000    0.004    0.001 c:\Virtual_Environments\theeng\lib\site-packages\sklearn\base.py:660(score)
        1    0.000    0.000    0.000    0.000 c:\Virtual_Environments\theeng\lib\site-packages\plotly\graph_objs\layout\template\data\_histogram2dcontour.py:1(<module>)
        1    0.000    0.000    0.000    0.000 c:\Virtual_Environments\theeng\lib\site-packages\plotly\graph_objs\scattergeo\_marker.py:5(Marker)
       10    0.000    0.000    0.000    0.000 c:\Virtual_Environments\theeng\lib\site-packages\pandas\core\dtypes\astype.py:192(astype_array)
        4    0.000    0.000    0.000    0.000 c:\Virtual_Environments\theeng\lib\site-packages\pandas\core\internals\managers.py:1078(fast_xs)
       12    0.000    0.000    0.000    0.000 c:\Virtual_Environments\theeng\lib\site-packages\scipy\special\_basic.py:2580(comb)
        1    0.000    0.000    0.000    0.000 c:\Virtual_Environments\theeng\lib\site-packages\plotly\graph_objs\scattercarpet\_marker.py:5(Marker)
       23    0.000    0.000    0.000    0.000 C:\Python38\lib\contextlib.py:353(__init__)
        9    0.000    0.000    0.011    0.001 c:\Virtual_Environments\theeng\lib\site-packages\_plotly_utils\basevalidators.py:2506(validate_coerce)
        1    0.000    0.000    0.005    0.005 C:\Engineering Programs\FreeCAD 0.20\Mod\Fem\femsolver\run.py:24(<module>)
       18    0.000    0.000    0.000    0.000 C:\Python38\lib\re.py:203(sub)
        6    0.000    0.000    0.000    0.000 C:\Python38\lib\pathlib.py:718(__str__)
        3    0.000    0.000    0.000    0.000 c:\Virtual_Environments\theeng\lib\site-packages\pandas\core\ops\__init__.py:390(_maybe_align_series_as_frame)
       54    0.000    0.000    0.000    0.000 c:\Virtual_Environments\theeng\lib\site-packages\pandas\core\indexing.py:888(<genexpr>)
       12    0.000    0.000    0.000    0.000 c:\Virtual_Environments\theeng\lib\site-packages\numpy\core\getlimits.py:476(__new__)
       10    0.000    0.000    0.000    0.000 C:\Python38\lib\threading.py:341(notify)
       10    0.000    0.000    0.000    0.000 c:\Virtual_Environments\theeng\lib\site-packages\pandas\core\internals\blocks.py:200(fill_value)
        7    0.000    0.000    0.000    0.000 c:\Virtual_Environments\theeng\lib\site-packages\_plotly_utils\basevalidators.py:1919(__init__)
       12    0.000    0.000    0.000    0.000 c:\Virtual_Environments\theeng\lib\site-packages\plotly\basedatatypes.py:5801(_get_prop_validator)
        1    0.000    0.000    0.000    0.000 c:\Virtual_Environments\theeng\lib\site-packages\plotly\graph_objs\scatterpolar\_marker.py:5(Marker)
       69    0.000    0.000    0.000    0.000 C:\Python38\lib\contextlib.py:479(__enter__)
       22    0.000    0.000    0.000    0.000 <__array_function__ internals>:177(append)
       18    0.000    0.000    0.000    0.000 {method 'sub' of 're.Pattern' objects}
        4    0.000    0.000    0.001    0.000 c:\Virtual_Environments\theeng\lib\site-packages\numpy\core\fromnumeric.py:3345(mean)
       95    0.000    0.000    0.000    0.000 c:\Virtual_Environments\theeng\lib\site-packages\numpy\lib\stride_tricks.py:363(_broadcast_to_dispatcher)
        3    0.000    0.000    0.000    0.000 c:\Virtual_Environments\theeng\lib\site-packages\pandas\core\dtypes\cast.py:574(_maybe_promote)
       12    0.000    0.000    0.000    0.000 c:\Virtual_Environments\theeng\lib\site-packages\scipy\sparse\_sputils.py:211(isscalarlike)
        8    0.000    0.000    0.000    0.000 c:\Virtual_Environments\theeng\lib\site-packages\numpy\core\shape_base.py:23(atleast_1d)
        1    0.000    0.000    0.000    0.000 {pandas._libs.lib.map_infer_mask}
        5    0.000    0.000    0.000    0.000 C:\Python38\lib\json\__init__.py:299(loads)
       13    0.000    0.000    0.001    0.000 <__array_function__ internals>:177(insert)
        6    0.000    0.000    0.000    0.000 c:\Virtual_Environments\theeng\lib\site-packages\pandas\core\internals\blocks.py:160(_consolidate_key)
        1    0.000    0.000    0.000    0.000 c:\Virtual_Environments\theeng\lib\site-packages\scipy\stats\_qmc.py:2541(_validate_bounds)
        2    0.000    0.000    0.001    0.001 c:\Virtual_Environments\theeng\lib\site-packages\plotly\express\_core.py:809(make_trace_spec)
       62    0.000    0.000    0.000    0.000 C:\Python38\lib\copy.py:263(<genexpr>)
        1    0.000    0.000    0.000    0.000 c:\Virtual_Environments\theeng\lib\site-packages\pandas\io\formats\format.py:566(__init__)
       15    0.000    0.000    0.000    0.000 c:\Virtual_Environments\theeng\lib\site-packages\_plotly_utils\utils.py:138(encode_as_plotly)
        1    0.000    0.000    0.000    0.000 c:\Virtual_Environments\theeng\lib\site-packages\plotly\graph_objs\layout\_legend.py:5(Legend)
       20    0.000    0.000    0.000    0.000 c:\Virtual_Environments\theeng\lib\site-packages\pandas\core\indexes\base.py:2421(is_boolean)
       12    0.000    0.000    0.000    0.000 c:\Virtual_Environments\theeng\lib\site-packages\sklearn\preprocessing\_polynomial.py:153(_num_combinations)
        1    0.000    0.000    0.000    0.000 c:\Virtual_Environments\theeng\lib\site-packages\pandas\core\frame.py:8267(groupby)
       23    0.000    0.000    0.000    0.000 c:\Virtual_Environments\theeng\lib\site-packages\pandas\core\internals\managers.py:2126(set_values)
        6    0.000    0.000    0.000    0.000 c:\Virtual_Environments\theeng\lib\site-packages\sklearn\preprocessing\_data.py:90(_handle_zeros_in_scale)
        4    0.000    0.000    0.008    0.002 c:\Virtual_Environments\theeng\lib\site-packages\plotly\_subplots.py:1341(_set_trace_grid_reference)
       22    0.000    0.000    0.000    0.000 {built-in method fromkeys}
        6    0.000    0.000    0.001    0.000 <frozen importlib._bootstrap_external>:1172(exec_module)
       54    0.000    0.000    0.000    0.000 c:\Virtual_Environments\theeng\lib\site-packages\pandas\core\indexing.py:1063(<genexpr>)
       20    0.000    0.000    0.000    0.000 c:\Virtual_Environments\theeng\lib\site-packages\pymoo\termination\max_eval.py:10(_update)
        4    0.000    0.000    0.000    0.000 {pandas._libs.lib.is_all_arraylike}
        7    0.000    0.000    0.000    0.000 c:\Virtual_Environments\theeng\lib\site-packages\_plotly_utils\basevalidators.py:380(__init__)
        1    0.000    0.000    0.010    0.010 c:\Virtual_Environments\theeng\lib\site-packages\plotly\tools.py:3(<module>)
        1    0.000    0.000    0.000    0.000 C:\Python38\lib\webbrowser.py:2(<module>)
       10    0.000    0.000    0.001    0.000 c:\Virtual_Environments\theeng\lib\site-packages\pandas\core\internals\managers.py:447(astype)
       48    0.000    0.000    0.000    0.000 c:\Virtual_Environments\theeng\lib\site-packages\sklearn\utils\_param_validation.py:262(is_satisfied_by)
       23    0.000    0.000    0.000    0.000 C:\Engineering Programs\FreeCAD 0.20\Mod\Fem\femmesh\meshsetsgetter.py:208(get_constraints_displacement_nodes)
        2    0.000    0.000    0.017    0.009 c:\Virtual_Environments\theeng\lib\site-packages\plotly\_subplots.py:932(_init_subplot_xy)
        1    0.000    0.000    0.000    0.000 c:\Virtual_Environments\theeng\lib\site-packages\plotly\graph_objs\layout\_slider.py:5(Slider)
        7    0.000    0.000    0.000    0.000 <frozen importlib._bootstrap>:881(_find_spec_legacy)
        1    0.000    0.000    0.000    0.000 c:\Virtual_Environments\theeng\lib\site-packages\pandas\core\sorting.py:378(nargsort)
       54    0.000    0.000    0.000    0.000 c:\Virtual_Environments\theeng\lib\site-packages\pandas\core\indexing.py:2661(<genexpr>)
       12    0.000    0.000    0.004    0.000 c:\Virtual_Environments\theeng\lib\site-packages\scipy\sparse\_base.py:626(__matmul__)
       12    0.000    0.000    0.000    0.000 c:\Virtual_Environments\theeng\lib\site-packages\scipy\sparse\_sputils.py:109(getdtype)
        1    0.000    0.000    0.000    0.000 c:\Virtual_Environments\theeng\lib\site-packages\plotly\graph_objs\barpolar\_marker.py:5(Marker)
        1    0.000    0.000    0.000    0.000 c:\Virtual_Environments\theeng\lib\site-packages\plotly\graph_objs\_table.py:5(Table)
        1    0.000    0.000    0.000    0.000 {method 'factorize' of 'pandas._libs.hashtable.UInt8HashTable' objects}
       16    0.000    0.000    0.001    0.000 c:\Virtual_Environments\theeng\lib\site-packages\sklearn\pipeline.py:173(get_params)
        6    0.000    0.000    0.000    0.000 c:\Virtual_Environments\theeng\lib\site-packages\scipy\linalg\blas.py:384(getter)
       73    0.000    0.000    0.000    0.000 c:\Virtual_Environments\theeng\lib\site-packages\numpy\core\fromnumeric.py:1245(_argmin_dispatcher)
        5    0.000    0.000    0.000    0.000 c:\Virtual_Environments\theeng\lib\site-packages\pandas\core\indexes\frozen.py:70(__getitem__)
        1    0.000    0.000    0.000    0.000 c:\Virtual_Environments\theeng\lib\site-packages\pandas\core\frame.py:6862(sort_values)
        1    0.000    0.000    0.000    0.000 c:\Virtual_Environments\theeng\lib\site-packages\plotly\graph_objs\scattermapbox\_marker.py:5(Marker)
       21    0.000    0.000    0.000    0.000 c:\Virtual_Environments\theeng\lib\site-packages\pandas\core\generic.py:2060(<genexpr>)
        4    0.000    0.000    0.000    0.000 c:\Virtual_Environments\theeng\lib\site-packages\pandas\core\internals\concat.py:278(_get_mgr_concatenation_plan)
        2    0.000    0.000    0.000    0.000 c:\Virtual_Environments\theeng\lib\site-packages\pandas\core\internals\managers.py:2372(<listcomp>)
       90    0.000    0.000    0.000    0.000 c:\Virtual_Environments\theeng\lib\site-packages\scipy\sparse\_sputils.py:313(<genexpr>)
        2    0.000    0.000    0.000    0.000 {pandas._libs.algos.take_2d_axis0_bool_bool}
        5    0.000    0.000    0.000    0.000 c:\Virtual_Environments\theeng\lib\site-packages\sklearn\utils\parallel.py:67(delayed)
        6    0.000    0.000    0.000    0.000 c:\Virtual_Environments\theeng\lib\site-packages\plotly\_subplots.py:1231(_get_cell_str)
       82    0.000    0.000    0.000    0.000 c:\Virtual_Environments\theeng\lib\site-packages\numpy\core\fromnumeric.py:2427(_all_dispatcher)
        2    0.000    0.000    0.000    0.000 c:\Virtual_Environments\theeng\lib\site-packages\pymoo\core\algorithm.py:249(result)
        3    0.000    0.000    0.000    0.000 c:\Virtual_Environments\theeng\lib\site-packages\pandas\core\generic.py:1483(__neg__)
        1    0.000    0.000    0.000    0.000 c:\Virtual_Environments\theeng\lib\site-packages\plotly\graph_objs\scatterpolargl\_marker.py:5(Marker)
       11    0.000    0.000    0.000    0.000 <__array_function__ internals>:177(bincount)
        6    0.000    0.000    0.000    0.000 c:\Virtual_Environments\theeng\lib\site-packages\numpy\core\fromnumeric.py:2604(ptp)
       36    0.000    0.000    0.000    0.000 c:\Virtual_Environments\theeng\lib\site-packages\pandas\core\indexing.py:899(_validate_key_length)
        6    0.000    0.000    0.000    0.000 c:\Virtual_Environments\theeng\lib\site-packages\pandas\core\internals\ops.py:27(_iter_block_pairs)
        1    0.000    0.000    0.000    0.000 c:\Virtual_Environments\theeng\lib\site-packages\plotly\graph_objs\scatter3d\_marker.py:5(Marker)
       23    0.000    0.000    0.000    0.000 C:\Python38\lib\codecs.py:738(__getattr__)
        3    0.000    0.000    0.000    0.000 C:\Python38\lib\random.py:123(seed)
       40    0.000    0.000    0.000    0.000 c:\Virtual_Environments\theeng\lib\site-packages\pandas\core\indexes\base.py:574(_ensure_array)
        3    0.000    0.000    0.000    0.000 c:\Virtual_Environments\theeng\lib\site-packages\pandas\core\indexes\base.py:1268(copy)
        6    0.000    0.000    0.000    0.000 c:\Virtual_Environments\theeng\lib\site-packages\joblib\_parallel_backends.py:280(__init__)
        1    0.000    0.000    0.007    0.007 c:\Virtual_Environments\theeng\lib\site-packages\plotly\express\_core.py:633(configure_cartesian_axes)
        1    0.000    0.000    0.044    0.044 C:\Engineering Programs\FreeCAD 0.20\Mod\Fem\femsolver\calculix\tasks.py:25(<module>)
       20    0.000    0.000    0.003    0.000 c:\Virtual_Environments\theeng\lib\site-packages\plotly\basedatatypes.py:4717(<listcomp>)
        2    0.000    0.000    0.000    0.000 c:\Virtual_Environments\theeng\lib\site-packages\pandas\core\indexes\base.py:1474(<listcomp>)
        4    0.000    0.000    0.000    0.000 c:\Virtual_Environments\theeng\lib\site-packages\pandas\core\internals\managers.py:2253(_form_blocks)
        6    0.000    0.000    0.000    0.000 c:\Virtual_Environments\theeng\lib\site-packages\_plotly_utils\basevalidators.py:1654(<listcomp>)
       11    0.000    0.000    0.009    0.001 c:\Virtual_Environments\theeng\lib\site-packages\plotly\graph_objs\layout\_template.py:216(layout)
        4    0.000    0.000    0.000    0.000 c:\Virtual_Environments\theeng\lib\site-packages\pandas\core\ops\missing.py:140(dispatch_fill_zeros)
        1    0.000    0.000    0.000    0.000 c:\Virtual_Environments\theeng\lib\site-packages\pandas\core\sorting.py:639(get_group_index_sorter)
       51    0.000    0.000    0.000    0.000 c:\Virtual_Environments\theeng\lib\site-packages\pandas\core\indexes\base.py:986(dtype)
       15    0.000    0.000    0.000    0.000 c:\Virtual_Environments\theeng\lib\site-packages\pandas\core\generic.py:570(_get_block_manager_axis)
        5    0.000    0.000    0.000    0.000 c:\Virtual_Environments\theeng\lib\site-packages\pandas\core\internals\concat.py:705(_combine_concat_plans)
        1    0.000    0.000    0.003    0.003 c:\Virtual_Environments\theeng\lib\site-packages\theeng\core\surrogate.py:15(__init__)
       12    0.000    0.000    0.000    0.000 c:\Virtual_Environments\theeng\lib\site-packages\scipy\sparse\_base.py:73(_coo_container)
        1    0.000    0.000    0.000    0.000 c:\Virtual_Environments\theeng\lib\site-packages\plotly\graph_objs\_parcoords.py:5(Parcoords)
        1    0.000    0.000    0.000    0.000 c:\Virtual_Environments\theeng\lib\site-packages\plotly\graph_objs\_parcats.py:5(Parcats)
        2    0.000    0.000    0.000    0.000 c:\Virtual_Environments\theeng\lib\site-packages\pandas\io\formats\format.py:1616(<listcomp>)
       13    0.000    0.000    0.000    0.000 <__array_function__ internals>:177(moveaxis)
       10    0.000    0.000    0.000    0.000 c:\Virtual_Environments\theeng\lib\site-packages\pymoo\operators\selection\tournament.py:54(compare)
        6    0.000    0.000    0.000    0.000 c:\Virtual_Environments\theeng\lib\site-packages\sklearn\utils\validation.py:349(check_memory)
       26    0.000    0.000    0.000    0.000 c:\Virtual_Environments\theeng\lib\site-packages\numpy\core\numeric.py:1398(<listcomp>)
       67    0.000    0.000    0.000    0.000 c:\Virtual_Environments\theeng\lib\site-packages\numpy\lib\function_base.py:867(_copy_dispatcher)
        4    0.000    0.000    0.000    0.000 {pandas._libs.internals.get_blkno_placements}
        3    0.000    0.000    0.000    0.000 c:\Virtual_Environments\theeng\lib\site-packages\_plotly_utils\basevalidators.py:1489(<listcomp>)
        1    0.000    0.000    0.046    0.046 C:\Engineering Programs\FreeCAD 0.20\Mod\Fem\femsolver\calculix\solver.py:24(<module>)
       18    0.000    0.000    0.000    0.000 c:\Virtual_Environments\theeng\lib\site-packages\pandas\core\common.py:313(is_null_slice)
        2    0.000    0.000    0.000    0.000 c:\Virtual_Environments\theeng\lib\site-packages\pandas\core\indexes\base.py:6251(_find_common_type_compat)
        1    0.000    0.000    0.021    0.021 c:\Virtual_Environments\theeng\lib\site-packages\pandas\core\frame.py:1160(to_string)
       14    0.000    0.000    0.000    0.000 c:\Virtual_Environments\theeng\lib\site-packages\pandas\core\internals\construction.py:405(_check_values_indices_shape_match)
        1    0.000    0.000    0.037    0.037 c:\Virtual_Environments\theeng\lib\site-packages\theeng\core\surrogate.py:28(generate)
        1    0.000    0.000    0.000    0.000 c:\Virtual_Environments\theeng\lib\site-packages\plotly\graph_objs\layout\_shape.py:5(Shape)
        2    0.000    0.000    0.000    0.000 C:\Python38\lib\ntpath.py:289(expanduser)
        2    0.000    0.000    0.000    0.000 C:\Python38\lib\warnings.py:35(_formatwarnmsg_impl)
       23    0.000    0.000    0.000    0.000 C:\Engineering Programs\FreeCAD 0.20\Mod\Fem\femmesh\meshsetsgetter.py:515(get_constraints_centrif_elements)
        1    0.000    0.000    0.000    0.000 c:\Virtual_Environments\theeng\lib\site-packages\plotly\validators\layout\template\data\_histogram2dcontour.py:1(<module>)
       29    0.000    0.000    0.000    0.000 C:\Python38\lib\sre_compile.py:65(_combine_flags)
        2    0.000    0.000    0.000    0.000 c:\Virtual_Environments\theeng\lib\site-packages\pandas\core\internals\concat.py:415(is_na)
       10    0.000    0.000    0.000    0.000 c:\Virtual_Environments\theeng\lib\site-packages\sklearn\pipeline.py:729(_more_tags)
       18    0.000    0.000    0.000    0.000 {method 'transpose' of 'numpy.ndarray' objects}
        5    0.000    0.000    0.000    0.000 c:\Virtual_Environments\theeng\lib\site-packages\_plotly_utils\basevalidators.py:2594(__init__)
        1    0.000    0.000    0.000    0.000 C:\Engineering Programs\FreeCAD 0.20\Mod\Fem\ObjectsFem.py:24(<module>)
       67    0.000    0.000    0.000    0.000 c:\Virtual_Environments\theeng\lib\site-packages\pandas\core\internals\managers.py:1435(<genexpr>)
        1    0.000    0.000    0.000    0.000 c:\Virtual_Environments\theeng\lib\site-packages\theeng\core\optimizer.py:104(__init__)
       15    0.000    0.000    0.000    0.000 c:\Virtual_Environments\theeng\lib\site-packages\_plotly_utils\utils.py:168(encode_as_pandas)
        1    0.000    0.000    0.000    0.000 c:\Virtual_Environments\theeng\lib\site-packages\pandas\core\sorting.py:606(get_indexer_dict)
       19    0.000    0.000    0.000    0.000 c:\Virtual_Environments\theeng\lib\site-packages\pymoo\core\population.py:88(create)
       10    0.000    0.000    0.000    0.000 c:\Virtual_Environments\theeng\lib\site-packages\sklearn\_config.py:162(config_context)
        6    0.000    0.000    0.000    0.000 c:\Virtual_Environments\theeng\lib\site-packages\pandas\core\frame.py:934(_can_fast_transpose)
       36    0.000    0.000    0.000    0.000 {built-in method time.time}
       64    0.000    0.000    0.000    0.000 {built-in method sys.getrecursionlimit}
        1    0.000    0.000    0.000    0.000 C:\Engineering Programs\FreeCAD 0.20\Mod\Fem\femsolver\run.py:541(_DocObserver)
       39    0.000    0.000    0.000    0.000 c:\Virtual_Environments\theeng\lib\site-packages\pandas\core\indexers\utils.py:66(is_list_like_indexer)
       41    0.000    0.000    0.000    0.000 c:\Virtual_Environments\theeng\lib\site-packages\pandas\core\internals\managers.py:997(__init__)
       97    0.000    0.000    0.000    0.000 {built-in method _sre.unicode_iscased}
       31    0.000    0.000    0.000    0.000 c:\Virtual_Environments\theeng\lib\site-packages\_plotly_utils\basevalidators.py:2588(present)
       23    0.000    0.000    0.000    0.000 C:\Python38\lib\codecs.py:348(__init__)
       14    0.000    0.000    0.000    0.000 c:\Virtual_Environments\theeng\lib\site-packages\pandas\core\indexes\base.py:1820(_get_names)
       23    0.000    0.000    0.000    0.000 C:\Engineering Programs\FreeCAD 0.20\Mod\Fem\femsolver\calculix\write_constraint_force.py:29(get_analysis_types)
       11    0.000    0.000    0.000    0.000 c:\Virtual_Environments\theeng\lib\site-packages\pandas\core\indexes\base.py:2745(inferred_type)
        2    0.000    0.000    0.001    0.000 c:\Virtual_Environments\theeng\lib\site-packages\pandas\core\frame.py:7585(_arith_method)
       12    0.000    0.000    0.000    0.000 c:\Virtual_Environments\theeng\lib\site-packages\scipy\sparse\_base.py:83(_csr_container)
       24    0.000    0.000    0.000    0.000 c:\Virtual_Environments\theeng\lib\site-packages\scipy\_lib\_util.py:143(_prune_array)
        4    0.000    0.000    0.000    0.000 c:\Virtual_Environments\theeng\lib\site-packages\_plotly_utils\basevalidators.py:1809(__init__)
       99    0.000    0.000    0.000    0.000 c:\Virtual_Environments\theeng\lib\site-packages\numpy\core\multiarray.py:502(can_cast)
       14    0.000    0.000    0.000    0.000 c:\Virtual_Environments\theeng\lib\site-packages\pandas\core\generic.py:4114(_set_is_copy)
        4    0.000    0.000    0.000    0.000 c:\Virtual_Environments\theeng\lib\site-packages\pandas\io\formats\format.py:438(adjoin)
       34    0.000    0.000    0.000    0.000 c:\Virtual_Environments\theeng\lib\site-packages\pandas\io\formats\format.py:1999(<genexpr>)
       23    0.000    0.000    0.000    0.000 C:\Engineering Programs\FreeCAD 0.20\Mod\Fem\femmesh\meshsetsgetter.py:383(get_constraints_contact_faces)
        7    0.000    0.000    0.000    0.000 C:\Python38\lib\sre_compile.py:432(_generate_overlap_table)
       33    0.000    0.000    0.000    0.000 c:\Virtual_Environments\theeng\lib\site-packages\pandas\core\indexes\base.py:2783(_is_multi)
       15    0.000    0.000    0.000    0.000 c:\Virtual_Environments\theeng\lib\site-packages\pandas\core\indexes\range.py:541(equals)
        6    0.000    0.000    0.000    0.000 c:\Virtual_Environments\theeng\lib\site-packages\scipy\sparse\_dia.py:446(isspmatrix_dia)
        1    0.000    0.000    0.000    0.000 c:\Virtual_Environments\theeng\lib\site-packages\pandas\core\indexes\range.py:887(_concat)
       20    0.000    0.000    0.000    0.000 c:\Virtual_Environments\theeng\lib\site-packages\pymoo\core\problem.py:337(has_constraints)
       19    0.000    0.000    0.000    0.000 C:\Python38\lib\sre_parse.py:96(closegroup)
       56    0.000    0.000    0.000    0.000 c:\Virtual_Environments\theeng\lib\site-packages\numpy\core\fromnumeric.py:2824(_amin_dispatcher)
        1    0.000    0.000    0.000    0.000 c:\Virtual_Environments\theeng\lib\site-packages\scipy\linalg\blas.py:326(_get_funcs)
        1    0.000    0.000    0.000    0.000 C:\Python38\lib\tempfile.py:150(_candidate_tempdir_list)
       20    0.000    0.000    0.000    0.000 c:\Virtual_Environments\theeng\lib\site-packages\pymoo\core\callback.py:14(update)
       20    0.000    0.000    0.000    0.000 c:\Virtual_Environments\theeng\lib\site-packages\pymoo\util\display\display.py:13(update)
       10    0.000    0.000    0.000    0.000 c:\Virtual_Environments\theeng\lib\site-packages\_plotly_utils\basevalidators.py:1876(validate_coerce)
        1    0.000    0.000    0.000    0.000 c:\Virtual_Environments\theeng\lib\site-packages\pandas\core\strings\accessor.py:178(__init__)
       18    0.000    0.000    0.000    0.000 c:\Virtual_Environments\theeng\lib\site-packages\scipy\linalg\lapack.py:1010(<genexpr>)
        1    0.000    0.000    1.230    1.230 c:\Virtual_Environments\theeng\lib\site-packages\theeng\algorithms\simulators.py:24(__init__)
        5    0.000    0.000    0.021    0.004 c:\Virtual_Environments\theeng\lib\site-packages\joblib\parallel.py:288(<listcomp>)
        6    0.000    0.000    0.000    0.000 c:\Virtual_Environments\theeng\lib\site-packages\_plotly_utils\basevalidators.py:478(build_regex_replacement)
       23    0.000    0.000    0.000    0.000 C:\Engineering Programs\FreeCAD 0.20\Mod\Fem\femmesh\meshsetsgetter.py:223(get_constraints_planerotation_nodes)
       23    0.000    0.000    0.000    0.000 C:\Engineering Programs\FreeCAD 0.20\Mod\Fem\femmesh\meshsetsgetter.py:418(get_constraints_tie_faces)
        3    0.000    0.000    0.000    0.000 c:\Virtual_Environments\theeng\lib\site-packages\plotly\graph_objs\parcoords\_domain.py:128(__init__)
       12    0.000    0.000    0.007    0.001 c:\Virtual_Environments\theeng\lib\site-packages\joblib\memory.py:348(__call__)
        5    0.000    0.000    0.006    0.001 c:\Virtual_Environments\theeng\lib\site-packages\sklearn\metrics\_scorer.py:442(_passthrough_scorer)
        6    0.000    0.000    0.000    0.000 c:\Virtual_Environments\theeng\lib\site-packages\_plotly_utils\basevalidators.py:1470(__init__)
       12    0.000    0.000    0.002    0.000 c:\Virtual_Environments\theeng\lib\site-packages\pandas\core\generic.py:11921(max)
       22    0.000    0.000    0.000    0.000 c:\Virtual_Environments\theeng\lib\site-packages\_plotly_utils\basevalidators.py:638(validate_coerce)
      4/1    0.000    0.000    0.000    0.000 c:\Virtual_Environments\theeng\lib\site-packages\pymoo\util\reference_direction.py:108(das_dennis_recursion)
        1    0.000    0.000    0.077    0.077 c:\Virtual_Environments\theeng\lib\site-packages\plotly\express\_chart_types.py:1400(parallel_coordinates)
       21    0.000    0.000    0.000    0.000 c:\Virtual_Environments\theeng\lib\site-packages\pymoo\core\algorithm.py:144(has_next)
        8    0.000    0.000    0.000    0.000 c:\Virtual_Environments\theeng\lib\site-packages\plotly\basedatatypes.py:1668(_perform_plotly_restyle)
        4    0.000    0.000    0.000    0.000 c:\Virtual_Environments\theeng\lib\site-packages\pandas\core\indexing.py:2522(check_bool_indexer)
        4    0.000    0.000    0.000    0.000 c:\Virtual_Environments\theeng\lib\site-packages\pandas\core\indexes\range.py:195(_data)
        1    0.000    0.000    0.000    0.000 c:\Virtual_Environments\theeng\lib\site-packages\joblib\parallel.py:960(retrieve)
        1    0.000    0.000    0.000    0.000 c:\Virtual_Environments\theeng\lib\site-packages\plotly\graph_objs\layout\_scene.py:5(Scene)
        1    0.000    0.000    0.000    0.000 c:\Virtual_Environments\theeng\lib\site-packages\plotly\graph_objs\scatter3d\_line.py:5(Line)
       26    0.000    0.000    0.001    0.000 c:\Virtual_Environments\theeng\lib\site-packages\pandas\core\indexes\base.py:6193(_index_as_unique)
       20    0.000    0.000    0.000    0.000 c:\Virtual_Environments\theeng\lib\site-packages\pymoo\core\problem.py:223(<dictcomp>)
        3    0.000    0.000    0.000    0.000 c:\Virtual_Environments\theeng\lib\site-packages\_plotly_utils\basevalidators.py:824(__init__)
        4    0.000    0.000    0.001    0.000 c:\Virtual_Environments\theeng\lib\site-packages\pandas\core\internals\construction.py:627(_extract_index)
       15    0.000    0.000    0.000    0.000 {built-in method sys.intern}
        1    0.000    0.000    0.000    0.000 c:\Virtual_Environments\theeng\lib\site-packages\plotly\graph_objs\bar\_error_y.py:5(ErrorY)
        1    0.000    0.000    0.000    0.000 c:\Virtual_Environments\theeng\lib\site-packages\plotly\graph_objs\histogram\_marker.py:5(Marker)
        1    0.000    0.000    0.000    0.000 c:\Virtual_Environments\theeng\lib\site-packages\scipy\stats\_qmc.py:706(__init__)
        1    0.000    0.000    0.000    0.000 c:\Virtual_Environments\theeng\lib\site-packages\plotly\graph_objs\_deprecations.py:1(<module>)
       43    0.000    0.000    0.000    0.000 C:\Python38\lib\sre_compile.py:453(_get_iscased)
        1    0.000    0.000    0.000    0.000 C:\Python38\lib\ntpath.py:450(normpath)
       58    0.000    0.000    0.000    0.000 c:\Virtual_Environments\theeng\lib\site-packages\numpy\core\fromnumeric.py:193(_reshape_dispatcher)
        7    0.000    0.000    0.000    0.000 c:\Virtual_Environments\theeng\lib\site-packages\pandas\core\internals\managers.py:2407(_preprocess_slice_or_indexer)
        1    0.000    0.000    0.007    0.007 c:\Virtual_Environments\theeng\lib\site-packages\theeng\core\ranker.py:61(rank)
        3    0.000    0.000    0.000    0.000 {built-in method _operator.inv}
       14    0.000    0.000    0.000    0.000 c:\Virtual_Environments\theeng\lib\site-packages\pandas\core\frame.py:874(shape)
        6    0.000    0.000    0.002    0.000 c:\Virtual_Environments\theeng\lib\site-packages\pandas\core\frame.py:3696(T)
       18    0.000    0.000    0.000    0.000 c:\Virtual_Environments\theeng\lib\site-packages\pandas\core\indexing.py:842(_expand_ellipsis)
        3    0.000    0.000    0.000    0.000 c:\Virtual_Environments\theeng\lib\site-packages\theeng\core\problem.py:180(_expressionParser)
       12    0.000    0.000    0.000    0.000 c:\Virtual_Environments\theeng\lib\site-packages\scipy\sparse\_sputils.py:135(getdata)
        1    0.000    0.000    0.000    0.000 {built-in method _warnings.warn}
        3    0.000    0.000    0.017    0.006 c:\Virtual_Environments\theeng\lib\site-packages\plotly\_subplots.py:1073(_init_subplot)
        4    0.000    0.000    0.000    0.000 c:\Virtual_Environments\theeng\lib\site-packages\pandas\core\ops\array_ops.py:136(_na_arithmetic_op)
        8    0.000    0.000    0.000    0.000 c:\Virtual_Environments\theeng\lib\site-packages\pandas\core\indexes\base.py:2801(_na_value)
       54    0.000    0.000    0.000    0.000 c:\Virtual_Environments\theeng\lib\site-packages\pandas\core\indexing.py:2672(<genexpr>)
        3    0.000    0.000    0.000    0.000 C:\Python38\lib\uuid.py:273(__str__)
        4    0.000    0.000    0.000    0.000 {pandas._libs.lib.is_bool_list}
        1    0.000    0.000    0.012    0.012 c:\Virtual_Environments\theeng\lib\site-packages\plotly\express\_imshow.py:400(<listcomp>)
        1    0.000    0.000    0.000    0.000 c:\Virtual_Environments\theeng\lib\site-packages\plotly\graph_objs\layout\_image.py:5(Image)
        1    0.000    0.000    0.000    0.000 c:\Virtual_Environments\theeng\lib\site-packages\plotly\graph_objs\bar\_marker.py:5(Marker)
        3    0.000    0.000    0.000    0.000 c:\Virtual_Environments\theeng\lib\site-packages\plotly\_subplots.py:399(_checks)
       46    0.000    0.000    0.000    0.000 C:\Engineering Programs\FreeCAD 0.20\Mod\Fem\femsolver\calculix\write_constraint_fixed.py:29(get_analysis_types)
       23    0.000    0.000    0.000    0.000 C:\Engineering Programs\FreeCAD 0.20\Mod\Fem\femsolver\calculix\write_constraint_fluidsection.py:141(write_constraints_fluidsection)
        1    0.000    0.000    0.000    0.000 c:\Virtual_Environments\theeng\lib\site-packages\plotly\graph_objs\bar\_error_x.py:5(ErrorX)
        2    0.000    0.000    0.000    0.000 c:\Virtual_Environments\theeng\lib\site-packages\pandas\io\formats\format.py:953(<listcomp>)
        1    0.000    0.000    0.000    0.000 c:\Virtual_Environments\theeng\lib\site-packages\pandas\core\groupby\grouper.py:467(__init__)
        1    0.000    0.000    0.017    0.017 c:\Virtual_Environments\theeng\lib\site-packages\pymoo\algorithms\moo\nsga3.py:42(__init__)
       12    0.000    0.000    0.000    0.000 c:\Virtual_Environments\theeng\lib\site-packages\scipy\sparse\_sputils.py:56(upcast_char)
        1    0.000    0.000    0.000    0.000 {built-in method pandas._libs.missing.isnaobj}
       15    0.000    0.000    0.000    0.000 c:\Virtual_Environments\theeng\lib\site-packages\_plotly_utils\utils.py:201(encode_as_datetime)
        1    0.000    0.000    0.000    0.000 C:\Engineering Programs\FreeCAD 0.20\Mod\Fem\femsolver\settings.py:24(<module>)
        3    0.000    0.000    0.000    0.000 c:\Virtual_Environments\theeng\lib\site-packages\plotly\validators\_frames.py:5(__init__)
       67    0.000    0.000    0.000    0.000 c:\Virtual_Environments\theeng\lib\site-packages\numpy\core\shape_base.py:77(_atleast_2d_dispatcher)
       41    0.000    0.000    0.000    0.000 c:\Virtual_Environments\theeng\lib\site-packages\pymoo\core\termination.py:34(has_terminated)
        5    0.000    0.000    0.021    0.004 c:\Virtual_Environments\theeng\lib\site-packages\joblib\_parallel_backends.py:206(apply_async)
       15    0.000    0.000    0.000    0.000 C:\Python38\lib\copy.py:210(<listcomp>)
       18    0.000    0.000    0.000    0.000 c:\Virtual_Environments\theeng\lib\site-packages\pandas\core\internals\construction.py:231(mgr_to_mgr)
        5    0.000    0.000    0.000    0.000 c:\Virtual_Environments\theeng\lib\site-packages\joblib\_parallel_backends.py:213(get_nested_backend)
        9    0.000    0.000    0.000    0.000 <__array_function__ internals>:177(fill_diagonal)
       46    0.000    0.000    0.000    0.000 c:\Virtual_Environments\theeng\lib\site-packages\theeng\core\ranker.py:55(<genexpr>)
       15    0.000    0.000    0.000    0.000 c:\Virtual_Environments\theeng\lib\site-packages\_plotly_utils\utils.py:146(encode_as_list)
        1    0.000    0.000    0.429    0.429 c:\Virtual_Environments\theeng\lib\site-packages\pymoo\util\ref_dirs\energy.py:151(_do)
        8    0.000    0.000    0.000    0.000 c:\Virtual_Environments\theeng\lib\site-packages\pandas\core\internals\managers.py:1860(<listcomp>)
       23    0.000    0.000    0.000    0.000 C:\Python38\lib\tempfile.py:224(_get_candidate_names)
       10    0.000    0.000    0.000    0.000 c:\Virtual_Environments\theeng\lib\site-packages\sklearn\_config.py:48(set_config)
        1    0.000    0.000    0.012    0.012 c:\Virtual_Environments\theeng\lib\site-packages\plotly\offline\offline.py:1(<module>)
       33    0.000    0.000    0.000    0.000 c:\Virtual_Environments\theeng\lib\site-packages\pandas\core\frame.py:600(_constructor)
       36    0.000    0.000    0.000    0.000 c:\Virtual_Environments\theeng\lib\site-packages\pandas\io\formats\format.py:881(<genexpr>)
       23    0.000    0.000    0.000    0.000 C:\Engineering Programs\FreeCAD 0.20\Mod\Fem\femmesh\meshsetsgetter.py:235(get_constraints_transform_nodes)
        1    0.000    0.000    0.000    0.000 c:\Virtual_Environments\theeng\lib\site-packages\plotly\validators\layout\ternary\baxis\_gridcolor.py:1(<module>)
        9    0.000    0.000    0.000    0.000 c:\Virtual_Environments\theeng\lib\site-packages\pandas\core\generic.py:445(_validate_dtype)
        6    0.000    0.000    0.000    0.000 c:\Virtual_Environments\theeng\lib\site-packages\joblib\memory.py:100(_store_backend_factory)
        1    0.000    0.000    0.000    0.000 c:\Virtual_Environments\theeng\lib\site-packages\sklearn\metrics\_scorer.py:520(_check_multimetric_scoring)
       10    0.000    0.000    0.000    0.000 c:\Virtual_Environments\theeng\lib\site-packages\pandas\core\dtypes\common.py:352(is_datetime64tz_dtype)
        2    0.000    0.000    0.001    0.000 c:\Virtual_Environments\theeng\lib\site-packages\pandas\core\groupby\groupby.py:794(get_group)
        1    0.000    0.000    0.000    0.000 c:\Virtual_Environments\theeng\lib\site-packages\pandas\core\generic.py:6025(_get_numeric_data)
        1    0.000    0.000    0.254    0.254 c:\Virtual_Environments\theeng\lib\site-packages\pymoo\optimize.py:4(minimize)
        1    0.000    0.000    0.455    0.455 c:\Virtual_Environments\theeng\lib\site-packages\theeng\algorithms\optimizers.py:35(nsga3)
        6    0.000    0.000    0.000    0.000 c:\Virtual_Environments\theeng\lib\site-packages\_plotly_utils\basevalidators.py:2638(get_trace_class)
       23    0.000    0.000    0.000    0.000 C:\Engineering Programs\FreeCAD 0.20\Mod\Fem\femmesh\meshsetsgetter.py:446(get_constraints_sectionprint_faces)
        3    0.000    0.000    0.000    0.000 c:\Virtual_Environments\theeng\lib\site-packages\pandas\core\ops\array_ops.py:402(get_array_op)
        3    0.000    0.000    0.001    0.000 c:\Virtual_Environments\theeng\lib\site-packages\_plotly_utils\basevalidators.py:1483(validate_coerce)
       23    0.000    0.000    0.000    0.000 C:\Engineering Programs\FreeCAD 0.20\Mod\Fem\femmesh\meshsetsgetter.py:247(get_constraints_temperature_nodes)
        1    0.000    0.000    0.005    0.005 c:\Virtual_Environments\theeng\lib\site-packages\plotly\io\_html.py:1(<module>)
        1    0.000    0.000    0.000    0.000 c:\Virtual_Environments\theeng\lib\site-packages\plotly\graph_objs\scatter\_fillpattern.py:5(Fillpattern)
        6    0.000    0.000    0.000    0.000 c:\Virtual_Environments\theeng\lib\site-packages\pandas\core\generic.py:821(_set_axis)
       36    0.000    0.000    0.000    0.000 c:\Virtual_Environments\theeng\lib\site-packages\scipy\sparse\_data.py:23(_get_dtype)
        6    0.000    0.000    0.003    0.000 c:\Virtual_Environments\theeng\lib\site-packages\sklearn\preprocessing\_data.py:799(fit)
        1    0.000    0.000    0.000    0.000 c:\Virtual_Environments\theeng\lib\site-packages\theeng\algorithms\surrogates.py:15(polynomial)
       22    0.000    0.000    0.000    0.000 c:\Virtual_Environments\theeng\lib\site-packages\pandas\compat\numpy\function.py:56(__call__)
        1    0.000    0.000    0.000    0.000 c:\Virtual_Environments\theeng\lib\site-packages\pandas\core\arrays\numpy_.py:69(__init__)
       54    0.000    0.000    0.000    0.000 c:\Virtual_Environments\theeng\lib\site-packages\pandas\core\indexing.py:848(<genexpr>)
        1    0.000    0.000    0.002    0.002 c:\Virtual_Environments\theeng\lib\site-packages\theeng\algorithms\rankers.py:46(simpleAdditive)
       24    0.000    0.000    0.000    0.000 c:\Virtual_Environments\theeng\lib\site-packages\scipy\sparse\_sputils.py:93(to_native)
        1    0.000    0.000    0.000    0.000 C:\Engineering Programs\FreeCAD 0.20\Mod\Fem\femobjects\solver_ccxtools.py:63(onDocumentRestored)
        1    0.000    0.000    0.000    0.000 c:\Virtual_Environments\theeng\lib\site-packages\plotly\graph_objs\bar\marker\_pattern.py:5(Pattern)
        1    0.000    0.000    0.000    0.000 c:\Virtual_Environments\theeng\lib\site-packages\pandas\core\strings\accessor.py:255(_wrap_result)
        7    0.000    0.000    0.000    0.000 c:\Virtual_Environments\theeng\lib\site-packages\pandas\core\generic.py:2002(empty)
        1    0.000    0.000    0.019    0.019 c:\Virtual_Environments\theeng\lib\site-packages\pandas\io\formats\string.py:41(_get_string_representation)
        1    0.000    0.000    0.000    0.000 c:\Virtual_Environments\theeng\lib\site-packages\plotly\graph_objs\table\_header.py:5(Header)
        2    0.000    0.000    0.000    0.000 c:\Virtual_Environments\theeng\lib\site-packages\pandas\core\generic.py:1754(_check_label_or_level_ambiguity)
        1    0.000    0.000    0.001    0.001 C:\Engineering Programs\FreeCAD 0.20\Mod\Fem\femmesh\meshtools.py:23(<module>)
       30    0.000    0.000    0.000    0.000 C:\Python38\lib\enum.py:753(value)
        6    0.000    0.000    0.000    0.000 C:\Python38\lib\json\encoder.py:104(__init__)
       10    0.000    0.000    0.000    0.000 c:\Virtual_Environments\theeng\lib\site-packages\pandas\core\indexes\base.py:6303(_is_comparable_dtype)
       32    0.000    0.000    0.000    0.000 c:\Virtual_Environments\theeng\lib\site-packages\pandas\core\generic.py:664(ndim)
        2    0.000    0.000    0.000    0.000 c:\Virtual_Environments\theeng\lib\site-packages\pandas\core\indexes\range.py:458(copy)
       15    0.000    0.000    0.004    0.000 c:\Virtual_Environments\theeng\lib\site-packages\_plotly_utils\utils.py:154(encode_as_sage)
        1    0.000    0.000    0.000    0.000 c:\Virtual_Environments\theeng\lib\site-packages\plotly\graph_objs\layout\_title.py:5(Title)
       64    0.000    0.000    0.000    0.000 C:\Python38\lib\inspect.py:2857(parameters)
        2    0.000    0.000    0.000    0.000 c:\Virtual_Environments\theeng\lib\site-packages\pandas\core\indexes\base.py:1852(set_names)
        5    0.000    0.000    0.000    0.000 c:\Virtual_Environments\theeng\lib\site-packages\joblib\parallel.py:271(__init__)
       17    0.000    0.000    0.000    0.000 c:\Virtual_Environments\theeng\lib\site-packages\numpy\core\_methods.py:61(_all)
        8    0.000    0.000    0.000    0.000 <__array_function__ internals>:177(atleast_1d)
        2    0.000    0.000    0.001    0.001 c:\Virtual_Environments\theeng\lib\site-packages\pandas\core\reshape\concat.py:146(concat)
       12    0.000    0.000    0.000    0.000 c:\Virtual_Environments\theeng\lib\site-packages\pandas\core\internals\managers.py:2324(<lambda>)
       81    0.000    0.000    0.000    0.000 {built-in method _sre.unicode_tolower}
       23    0.000    0.000    0.000    0.000 C:\Engineering Programs\FreeCAD 0.20\Mod\Fem\femmesh\meshsetsgetter.py:489(get_constraints_heatflux_faces)
        1    0.000    0.000    0.000    0.000 c:\Virtual_Environments\theeng\lib\site-packages\plotly\graph_objs\layout\_selection.py:5(Selection)
        1    0.000    0.000    0.000    0.000 c:\Virtual_Environments\theeng\lib\site-packages\plotly\validators\layout\template\data\_scattergeo.py:1(<module>)
        1    0.000    0.000    0.000    0.000 c:\Virtual_Environments\theeng\lib\site-packages\plotly\graph_objs\table\_cells.py:5(Cells)
        2    0.000    0.000    0.000    0.000 C:\Python38\lib\warnings.py:20(_showwarnmsg_impl)
        4    0.000    0.000    0.001    0.000 <__array_function__ internals>:177(mean)
        1    0.000    0.000    0.000    0.000 {built-in method _operator.truediv}
        6    0.000    0.000    0.000    0.000 c:\Virtual_Environments\theeng\lib\site-packages\sklearn\pipeline.py:319(_check_fit_params)
       16    0.000    0.000    0.000    0.000 c:\Virtual_Environments\theeng\lib\site-packages\pandas\core\nanops.py:195(_get_fill_value)
        1    0.000    0.000    0.000    0.000 c:\Virtual_Environments\theeng\lib\site-packages\pandas\core\base.py:1316(_arith_method)
        2    0.000    0.000    0.000    0.000 c:\Virtual_Environments\theeng\lib\site-packages\pandas\core\groupby\groupby.py:687(_get_indices)
        3    0.000    0.000    0.006    0.002 c:\Virtual_Environments\theeng\lib\site-packages\plotly\io\_utils.py:8(validate_coerce_fig_to_dict)
        1    0.000    0.000    0.000    0.000 c:\Virtual_Environments\theeng\lib\site-packages\pandas\core\dtypes\concat.py:71(concat_compat)
        7    0.000    0.000    0.000    0.000 c:\Virtual_Environments\theeng\lib\site-packages\joblib\_parallel_backends.py:34(__init__)
        2    0.000    0.000    0.000    0.000 c:\Virtual_Environments\theeng\lib\site-packages\plotly\express\_core.py:1968(<lambda>)
        6    0.000    0.000    0.000    0.000 c:\Virtual_Environments\theeng\lib\site-packages\plotly\io\_templates.py:195(merge_templates)
       23    0.000    0.000    0.000    0.000 C:\Engineering Programs\FreeCAD 0.20\Mod\Fem\femtools\constants.py:35(gravity)
        1    0.000    0.000    0.000    0.000 c:\Virtual_Environments\theeng\lib\site-packages\plotly\graph_objs\layout\_mapbox.py:5(Mapbox)
        1    0.000    0.000    0.000    0.000 c:\Virtual_Environments\theeng\lib\site-packages\plotly\io\_json.py:1(<module>)
        3    0.000    0.000    0.000    0.000 c:\Virtual_Environments\theeng\lib\site-packages\pandas\core\generic.py:9273(align)
        2    0.000    0.000    0.000    0.000 c:\Virtual_Environments\theeng\lib\site-packages\pandas\core\internals\managers.py:1040(_verify_integrity)
       16    0.000    0.000    0.000    0.000 c:\Virtual_Environments\theeng\lib\site-packages\pandas\io\formats\format.py:1450(_value_formatter)
        6    0.000    0.000    0.001    0.000 c:\Virtual_Environments\theeng\lib\site-packages\sklearn\utils\validation.py:1129(_check_y)
        1    0.000    0.000    0.000    0.000 c:\Virtual_Environments\theeng\lib\site-packages\plotly\graph_objs\parcoords\_line.py:5(Line)
        1    0.000    0.000    0.000    0.000 C:\Python38\lib\queue.py:33(__init__)
        1    0.000    0.000    0.000    0.000 c:\Virtual_Environments\theeng\lib\site-packages\pandas\core\generic.py:1799(_get_label_or_level_values)
       37    0.000    0.000    0.000    0.000 c:\Virtual_Environments\theeng\lib\site-packages\pandas\core\series.py:546(_constructor)
       36    0.000    0.000    0.000    0.000 c:\Virtual_Environments\theeng\lib\site-packages\pandas\core\indexing.py:1537(<genexpr>)
        3    0.000    0.000    0.000    0.000 c:\Virtual_Environments\theeng\lib\site-packages\plotly\validators\_layout.py:5(__init__)
        1    0.000    0.000    0.000    0.000 c:\Virtual_Environments\theeng\lib\site-packages\plotly\graph_objs\bar\marker\_line.py:5(Line)
        6    0.000    0.000    0.000    0.000 C:\Python38\lib\pathlib.py:728(__fspath__)
       51    0.000    0.000    0.000    0.000 c:\Virtual_Environments\theeng\lib\site-packages\numpy\core\fromnumeric.py:1777(_ravel_dispatcher)
        5    0.000    0.000    0.000    0.000 c:\Virtual_Environments\theeng\lib\site-packages\joblib\parallel.py:199(__init__)
       18    0.000    0.000    0.000    0.000 c:\Virtual_Environments\theeng\lib\site-packages\plotly\basedatatypes.py:142(_add_square_brackets_to_number)
       15    0.000    0.000    0.000    0.000 c:\Virtual_Environments\theeng\lib\site-packages\_plotly_utils\utils.py:209(encode_as_date)
        1    0.000    0.000    0.000    0.000 c:\Virtual_Environments\theeng\lib\site-packages\plotly\graph_objs\barpolar\marker\_line.py:5(Line)
        1    0.000    0.000    0.000    0.000 c:\Virtual_Environments\theeng\lib\site-packages\plotly\validators\parcoords\__init__.py:1(<module>)
        1    0.000    0.000    0.000    0.000 c:\Virtual_Environments\theeng\lib\site-packages\numpy\lib\shape_base.py:612(column_stack)
        2    0.000    0.000    0.000    0.000 c:\Virtual_Environments\theeng\lib\site-packages\pandas\core\dtypes\cast.py:1788(maybe_cast_to_integer_array)
        2    0.000    0.000    0.000    0.000 c:\Virtual_Environments\theeng\lib\site-packages\pandas\core\indexes\numeric.py:132(_ensure_array)
        1    0.000    0.000    0.000    0.000 c:\Virtual_Environments\theeng\lib\site-packages\plotly\validators\layout\coloraxis\_colorbar.py:1(<module>)
        1    0.000    0.000    0.000    0.000 c:\Virtual_Environments\theeng\lib\site-packages\plotly\graph_objs\histogram\marker\_pattern.py:5(Pattern)
        6    0.000    0.000    0.000    0.000 c:\Virtual_Environments\theeng\lib\site-packages\pandas\core\internals\blocks.py:376(_split_op_result)
      2/1    0.000    0.000    0.000    0.000 c:\Virtual_Environments\theeng\lib\site-packages\joblib\parallel.py:772(_initialize_backend)
        4    0.000    0.000    0.000    0.000 c:\Virtual_Environments\theeng\lib\site-packages\plotly\graph_objs\layout\_margin.py:159(__init__)
        1    0.000    0.000    0.000    0.000 C:\Python38\lib\contextlib.py:72(inner)
        2    0.000    0.000    0.000    0.000 c:\Virtual_Environments\theeng\lib\site-packages\pandas\core\indexes\base.py:5377(append)
        1    0.000    0.000    0.000    0.000 c:\Virtual_Environments\theeng\lib\site-packages\scipy\linalg\blas.py:259(find_best_blas_type)
        2    0.000    0.000    0.000    0.000 c:\Virtual_Environments\theeng\lib\site-packages\pymoo\core\result.py:6(__init__)
        1    0.000    0.000    0.017    0.017 c:\Virtual_Environments\theeng\lib\site-packages\pymoo\util\function_loader.py:99(is_compiled)
        5    0.000    0.000    0.000    0.000 {method 'item' of 'numpy.generic' objects}
       10    0.000    0.000    0.000    0.000 c:\Virtual_Environments\theeng\lib\site-packages\sklearn\preprocessing\_data.py:1057(_more_tags)
        2    0.000    0.000    0.013    0.006 c:\Virtual_Environments\theeng\lib\site-packages\pandas\io\formats\format.py:613(get_strcols)
        5    0.000    0.000    0.000    0.000 c:\Virtual_Environments\theeng\lib\site-packages\sklearn\utils\validation.py:1830(_check_fit_params)
        1    0.000    0.000    0.000    0.000 c:\Virtual_Environments\theeng\lib\site-packages\plotly\graph_objs\layout\_grid.py:5(Grid)
        5    0.000    0.000    0.000    0.000 c:\Virtual_Environments\theeng\lib\site-packages\pandas\core\indexes\base.py:821(_view)
        1    0.000    0.000    0.001    0.001 c:\Virtual_Environments\theeng\lib\site-packages\theeng\algorithms\rankers.py:64(_returnEfficient)
       36    0.000    0.000    0.000    0.000 c:\Virtual_Environments\theeng\lib\site-packages\sklearn\utils\__init__.py:953(_print_elapsed_time)
        3    0.000    0.000    0.027    0.009 c:\Virtual_Environments\theeng\lib\site-packages\plotly\graph_objs\_figure.py:5(__init__)
        3    0.000    0.000    0.001    0.000 C:\Python38\lib\pathlib.py:1214(open)
        1    0.000    0.000    0.000    0.000 c:\Virtual_Environments\theeng\lib\site-packages\pandas\core\nanops.py:83(_f)
        3    0.000    0.000    0.000    0.000 c:\Virtual_Environments\theeng\lib\site-packages\pandas\core\internals\blocks.py:355(reduce)
        1    0.000    0.000    0.003    0.003 c:\Virtual_Environments\theeng\lib\site-packages\pymoo\util\ref_dirs\construction.py:1(<module>)
        3    0.000    0.000    0.000    0.000 c:\Virtual_Environments\theeng\lib\site-packages\plotly\graph_objs\layout\_selection.py:398(__init__)
        1    0.000    0.000    0.000    0.000 c:\Virtual_Environments\theeng\lib\site-packages\plotly\graph_objs\layout\_polar.py:5(Polar)
        1    0.000    0.000    0.000    0.000 c:\Virtual_Environments\theeng\lib\site-packages\plotly\validators\scatter\fillpattern\_solidity.py:5(__init__)
       34    0.000    0.000    0.000    0.000 c:\Virtual_Environments\theeng\lib\site-packages\pandas\core\internals\blocks.py:213(mgr_locs)
        1    0.000    0.000    0.000    0.000 c:\Virtual_Environments\theeng\lib\site-packages\plotly\graph_objs\layout\legend\_title.py:5(Title)
        1    0.000    0.000    0.000    0.000 c:\Virtual_Environments\theeng\lib\site-packages\plotly\validators\scatterpolargl\marker\__init__.py:1(<module>)
        8    0.000    0.000    0.000    0.000 c:\Virtual_Environments\theeng\lib\site-packages\pandas\core\frame.py:4271(_clear_item_cache)
        2    0.000    0.000    0.000    0.000 c:\Virtual_Environments\theeng\lib\site-packages\pandas\core\indexes\api.py:122(_get_combined_index)
        2    0.000    0.000    0.001    0.001 c:\Virtual_Environments\theeng\lib\site-packages\pandas\core\internals\base.py:87(reindex_axis)
        1    0.000    0.000    0.001    0.001 c:\Virtual_Environments\theeng\lib\site-packages\pandas\core\groupby\ops.py:857(indices)
        9    0.000    0.000    0.000    0.000 c:\Virtual_Environments\theeng\lib\site-packages\sklearn\utils\validation.py:403(_make_indexable)
       25    0.000    0.000    0.000    0.000 {method 'group' of 're.Match' objects}
        8    0.000    0.000    0.000    0.000 c:\Virtual_Environments\theeng\lib\site-packages\_plotly_utils\basevalidators.py:2094(<dictcomp>)
        5    0.000    0.000    0.000    0.000 C:\Engineering Programs\FreeCAD 0.20\Mod\Fem\femsolver\settings.py:188(__init__)
        1    0.000    0.000    0.005    0.005 c:\Virtual_Environments\theeng\lib\site-packages\pymoo\util\ref_dirs\energy.py:1(<module>)
        1    0.000    0.000    0.000    0.000 c:\Virtual_Environments\theeng\lib\site-packages\plotly\graph_objs\barpolar\marker\_pattern.py:5(Pattern)
       10    0.000    0.000    0.000    0.000 c:\Virtual_Environments\theeng\lib\site-packages\pandas\core\missing.py:910(clean_reindex_fill_method)
       19    0.000    0.000    0.000    0.000 c:\Virtual_Environments\theeng\lib\site-packages\pandas\core\indexes\base.py:413(_engine_type)
        4    0.000    0.000    0.000    0.000 c:\Virtual_Environments\theeng\lib\site-packages\pandas\io\formats\printing.py:48(<listcomp>)
        1    0.000    0.000    0.021    0.021 c:\Virtual_Environments\theeng\lib\site-packages\pandas\core\frame.py:1054(__repr__)
        1    0.000    0.000    0.002    0.002 c:\Virtual_Environments\theeng\lib\site-packages\pymoo\termination\__init__.py:2(get_termination)
        8    0.000    0.000    0.000    0.000 c:\Virtual_Environments\theeng\lib\site-packages\theeng\core\abstract.py:39(<listcomp>)
        6    0.000    0.000    0.000    0.000 c:\Virtual_Environments\theeng\lib\site-packages\sklearn\model_selection\_split.py:318(split)
        6    0.000    0.000    0.000    0.000 c:\Virtual_Environments\theeng\lib\site-packages\_plotly_utils\basevalidators.py:1647(present)
        3    0.000    0.000    0.000    0.000 c:\Virtual_Environments\theeng\lib\site-packages\pandas\core\frame.py:7694(_construct_result)
       20    0.000    0.000    0.000    0.000 c:\Virtual_Environments\theeng\lib\site-packages\pymoo\core\problem.py:326(n_constr)
       40    0.000    0.000    0.000    0.000 {pandas._libs.lib.is_bool}
        3    0.000    0.000    0.000    0.000 c:\Virtual_Environments\theeng\lib\site-packages\plotly\_subplots.py:1110(_build_subplot_title_annotations)
        1    0.000    0.000    0.000    0.000 c:\Virtual_Environments\theeng\lib\site-packages\plotly\validators\scatter\marker\_symbol.py:5(__init__)
        1    0.000    0.000    0.000    0.000 c:\Virtual_Environments\theeng\lib\site-packages\plotly\graph_objs\layout\_modebar.py:5(Modebar)
        3    0.000    0.000    0.000    0.000 C:\Python38\lib\pathlib.py:701(_format_parsed_parts)
        3    0.000    0.000    0.000    0.000 c:\Virtual_Environments\theeng\lib\site-packages\theeng\core\optimizer.py:82(<listcomp>)
        1    0.000    0.000    0.000    0.000 c:\Virtual_Environments\theeng\lib\site-packages\plotly\validators\layout\scene\xaxis\_showbackground.py:5(__init__)
        1    0.000    0.000    0.000    0.000 c:\Virtual_Environments\theeng\lib\site-packages\plotly\graph_objs\layout\_coloraxis.py:5(Coloraxis)
        3    0.000    0.000    0.007    0.002 c:\Virtual_Environments\theeng\lib\site-packages\plotly\graph_objs\_figure.py:904(add_traces)
        1    0.000    0.000    0.000    0.000 C:\Engineering Programs\FreeCAD 0.20\Mod\Fem\feminout\importToolsFem.py:24(<module>)
       10    0.000    0.000    0.000    0.000 c:\Virtual_Environments\theeng\lib\site-packages\pandas\core\indexes\base.py:7456(unpack_nested_dtype)
        6    0.000    0.000    0.000    0.000 c:\Virtual_Environments\theeng\lib\site-packages\sklearn\preprocessing\_data.py:781(__init__)
        1    0.000    0.000    0.000    0.000 C:\Engineering Programs\FreeCAD 0.20\Mod\Fem\femresult\resulttools.py:22(<module>)
        1    0.000    0.000    0.000    0.000 c:\Virtual_Environments\theeng\lib\site-packages\plotly\graph_objs\layout\__init__.py:1(<module>)
        2    0.000    0.000    0.001    0.000 c:\Virtual_Environments\theeng\lib\site-packages\pandas\core\reshape\concat.py:633(<listcomp>)
        1    0.000    0.000    0.004    0.004 c:\Virtual_Environments\theeng\lib\site-packages\theeng\algorithms\rankers.py:10(__init__)
        6    0.000    0.000    0.000    0.000 c:\Virtual_Environments\theeng\lib\site-packages\sklearn\utils\_param_validation.py:450(is_satisfied_by)
        1    0.000    0.000    0.429    0.429 c:\Virtual_Environments\theeng\lib\site-packages\pymoo\util\ref_dirs\__init__.py:7(get_reference_directions)
        4    0.000    0.000    0.000    0.000 C:\Python38\lib\importlib\util.py:73(find_spec)
        7    0.000    0.000    0.000    0.000 c:\Virtual_Environments\theeng\lib\site-packages\six.py:194(find_spec)
        2    0.000    0.000    0.000    0.000 c:\Virtual_Environments\theeng\lib\site-packages\pandas\core\dtypes\cast.py:863(infer_dtype_from_array)
       10    0.000    0.000    0.000    0.000 c:\Virtual_Environments\theeng\lib\site-packages\pandas\core\base.py:168(__setattr__)
        3    0.000    0.000    0.000    0.000 c:\Virtual_Environments\theeng\lib\site-packages\pandas\core\generic.py:1485(blk_func)
        4    0.000    0.000    0.003    0.001 c:\Virtual_Environments\theeng\lib\site-packages\plotly\express\_core.py:239(<lambda>)
        1    0.000    0.000    0.000    0.000 C:\Engineering Programs\FreeCAD 0.20\Mod\Fem\femsolver\calculix\solver.py:132(add_attributes)
        7    0.000    0.000    0.000    0.000 c:\Virtual_Environments\theeng\lib\site-packages\plotly\graph_objs\_layout.py:4650(yaxis)
        3    0.000    0.000    0.000    0.000 c:\Virtual_Environments\theeng\lib\site-packages\pymoo\util\reference_direction.py:28(__init__)
        3    0.000    0.000    0.000    0.000 c:\Virtual_Environments\theeng\lib\site-packages\plotly\graph_objs\layout\_image.py:486(__init__)
        4    0.000    0.000    0.000    0.000 c:\Virtual_Environments\theeng\lib\site-packages\numpy\core\fromnumeric.py:878(sort)
        1    0.000    0.000    0.000    0.000 {built-in method _operator.mul}
        2    0.000    0.000    0.001    0.000 c:\Virtual_Environments\theeng\lib\site-packages\theeng\algorithms\visualizations.py:39(_filterData)
        1    0.000    0.000    0.000    0.000 c:\Virtual_Environments\theeng\lib\site-packages\plotly\validators\layout\_title.py:5(__init__)
        2    0.000    0.000    0.000    0.000 C:\Python38\lib\sre_compile.py:411(_mk_bitmap)
        3    0.000    0.000    0.001    0.000 C:\Python38\lib\pathlib.py:1076(_opener)
        4    0.000    0.000    0.000    0.000 c:\Virtual_Environments\theeng\lib\site-packages\pandas\core\frame.py:11664(values)
        1    0.000    0.000    0.053    0.053 C:\Engineering Programs\FreeCAD 0.20\Mod\Fem\femobjects\solver_ccxtools.py:24(<module>)
        1    0.000    0.000    0.000    0.000 c:\Virtual_Environments\theeng\lib\site-packages\plotly\validators\layout\polar\angularaxis\__init__.py:1(<module>)
        6    0.000    0.000    0.000    0.000 <__array_function__ internals>:177(ptp)
        1    0.000    0.000    0.000    0.000 c:\Virtual_Environments\theeng\lib\site-packages\pandas\core\strings\object_array.py:39(_str_map)
        3    0.000    0.000    0.000    0.000 c:\Virtual_Environments\theeng\lib\site-packages\pandas\core\internals\blocks.py:345(apply)
        1    0.000    0.000    0.000    0.000 {method 'std' of 'numpy.ndarray' objects}
        1    0.000    0.000    0.000    0.000 c:\Virtual_Environments\theeng\lib\site-packages\pymoo\util\reference_direction.py:1(<module>)
        1    0.000    0.000    0.000    0.000 c:\Virtual_Environments\theeng\lib\site-packages\plotly\graph_objs\layout\_margin.py:5(Margin)
        5    0.000    0.000    0.000    0.000 C:\Python38\lib\functools.py:64(wraps)
        1    0.000    0.000    0.438    0.438 c:\Virtual_Environments\theeng\lib\site-packages\deprecated\classic.py:276(wrapper_function)
        5    0.000    0.000    0.021    0.004 c:\Virtual_Environments\theeng\lib\site-packages\joblib\_parallel_backends.py:594(__init__)
        1    0.000    0.000    0.025    0.025 c:\Virtual_Environments\theeng\lib\site-packages\sklearn\model_selection\_validation.py:381(cross_val_score)
        1    0.000    0.000    0.000    0.000 C:\Engineering Programs\FreeCAD 0.20\Mod\Fem\feminout\importCcxDatResults.py:25(<module>)
       12    0.000    0.000    0.000    0.000 c:\Virtual_Environments\theeng\lib\site-packages\numpy\ma\core.py:6450(isMaskedArray)
        1    0.000    0.000    0.000    0.000 c:\Virtual_Environments\theeng\lib\site-packages\pandas\core\indexes\api.py:204(union_indexes)
       16    0.000    0.000    0.000    0.000 c:\Virtual_Environments\theeng\lib\site-packages\pandas\core\internals\managers.py:233(is_single_block)
       26    0.000    0.000    0.000    0.000 {built-in method numpy.ascontiguousarray}
        1    0.000    0.000    0.000    0.000 c:\Virtual_Environments\theeng\lib\site-packages\pandas\io\formats\string.py:1(<module>)
        1    0.000    0.000    0.000    0.000 c:\Virtual_Environments\theeng\lib\site-packages\plotly\graph_objs\layout\_ternary.py:5(Ternary)
        1    0.000    0.000    0.000    0.000 c:\Virtual_Environments\theeng\lib\site-packages\plotly\validators\layout\__init__.py:1(<module>)
        3    0.000    0.000    0.000    0.000 c:\Virtual_Environments\theeng\lib\site-packages\plotly\graph_objs\layout\_slider.py:927(__init__)
        2    0.000    0.000    0.000    0.000 C:\Python38\lib\threading.py:81(RLock)
        4    0.000    0.000    0.001    0.000 c:\Virtual_Environments\theeng\lib\site-packages\pandas\core\indexes\base.py:6032(get_indexer_for)
        3    0.000    0.000    0.000    0.000 c:\Virtual_Environments\theeng\lib\site-packages\pandas\core\frame.py:10819(blk_func)
        2    0.000    0.000    0.000    0.000 c:\Virtual_Environments\theeng\lib\site-packages\pandas\core\reshape\concat.py:476(<listcomp>)
        1    0.000    0.000    0.002    0.002 c:\Virtual_Environments\theeng\lib\site-packages\pymoo\util\misc.py:365(termination_from_tuple)
        2    0.000    0.000    0.000    0.000 c:\Virtual_Environments\theeng\lib\site-packages\sklearn\model_selection\_validation.py:1926(<dictcomp>)
       23    0.000    0.000    0.000    0.000 C:\Engineering Programs\FreeCAD 0.20\Mod\Fem\femsolver\calculix\write_constraint_force.py:33(get_sets_name)
        1    0.000    0.000    0.000    0.000 c:\Virtual_Environments\theeng\lib\site-packages\_plotly_utils\files.py:1(<module>)
        3    0.000    0.000    0.000    0.000 c:\Virtual_Environments\theeng\lib\site-packages\plotly\graph_objs\layout\_grid.py:417(__init__)
       41    0.000    0.000    0.000    0.000 c:\Virtual_Environments\theeng\lib\site-packages\pandas\core\indexes\base.py:241(disallow_kwargs)
       40    0.000    0.000    0.000    0.000 c:\Virtual_Environments\theeng\lib\site-packages\pandas\core\indexes\base.py:6569(_maybe_cast_indexer)
        1    0.000    0.000    0.000    0.000 c:\Virtual_Environments\theeng\lib\site-packages\pandas\io\formats\format.py:489(get_dataframe_repr_params)
        1    0.000    0.000    0.000    0.000 c:\Virtual_Environments\theeng\lib\site-packages\pandas\io\formats\format.py:1200(save_to_buffer)
       23    0.000    0.000    0.000    0.000 C:\Engineering Programs\FreeCAD 0.20\Mod\Fem\femsolver\calculix\write_constraint_force.py:37(get_before_write_meshdata_constraint)
        3    0.000    0.000    0.000    0.000 c:\Virtual_Environments\theeng\lib\site-packages\plotly\graph_objs\layout\_transition.py:102(__init__)
        1    0.000    0.000    0.000    0.000 C:\Python38\lib\typing.py:677(__getitem__)
        3    0.000    0.000    0.000    0.000 c:\Virtual_Environments\theeng\lib\site-packages\pandas\core\frame.py:5076(align)
       19    0.000    0.000    0.000    0.000 {method '__array_prepare__' of 'numpy.ndarray' objects}
        2    0.000    0.000    0.004    0.002 c:\Virtual_Environments\theeng\lib\site-packages\_plotly_utils\basevalidators.py:649(__init__)
        1    0.000    0.000    0.001    0.001 c:\Virtual_Environments\theeng\lib\site-packages\pymoo\util\reference_direction.py:178(sample_on_unit_simplex)
        3    0.000    0.000    0.000    0.000 c:\Virtual_Environments\theeng\lib\site-packages\plotly\graph_objs\layout\_modebar.py:405(__init__)
        7    0.000    0.000    0.000    0.000 C:\Python38\lib\typing.py:762(__setattr__)
        1    0.000    0.000    0.000    0.000 c:\Virtual_Environments\theeng\lib\site-packages\pandas\core\ops\__init__.py:420(f)
       23    0.000    0.000    0.000    0.000 c:\Virtual_Environments\theeng\lib\site-packages\pandas\core\internals\blocks.py:823(shape)
       24    0.000    0.000    0.000    0.000 {method 'clear' of 'collections.OrderedDict' objects}
        8    0.000    0.000    0.000    0.000 c:\Virtual_Environments\theeng\lib\site-packages\plotly\basedatatypes.py:1783(_normalize_trace_indexes)
        1    0.000    0.000    0.000    0.000 c:\Virtual_Environments\theeng\lib\site-packages\plotly\graph_objs\layout\_newshape.py:5(Newshape)
        2    0.000    0.000    0.000    0.000 C:\Python38\lib\warnings.py:403(__init__)
       29    0.000    0.000    0.000    0.000 c:\Virtual_Environments\theeng\lib\site-packages\numpy\core\fromnumeric.py:546(_swapaxes_dispatcher)
        1    0.000    0.000    0.021    0.021 c:\Virtual_Environments\theeng\lib\site-packages\pandas\io\formats\format.py:1113(to_string)
        6    0.000    0.000    0.000    0.000 c:\Virtual_Environments\theeng\lib\site-packages\pandas\io\formats\format.py:2012(_has_names)
       23    0.000    0.000    0.000    0.000 C:\Engineering Programs\FreeCAD 0.20\Mod\Fem\femsolver\calculix\write_constraint_force.py:41(get_after_write_meshdata_constraint)
        3    0.000    0.000    0.000    0.000 c:\Virtual_Environments\theeng\lib\site-packages\plotly\graph_objs\layout\_activeshape.py:103(__init__)
        3    0.000    0.000    0.000    0.000 c:\Virtual_Environments\theeng\lib\site-packages\plotly\graph_objs\layout\_newselection.py:90(__init__)
        1    0.000    0.000    0.000    0.000 c:\Virtual_Environments\theeng\lib\site-packages\plotly\graph_objs\parcoords\_domain.py:5(Domain)
        3    0.000    0.000    0.001    0.000 c:\Virtual_Environments\theeng\lib\site-packages\pandas\core\generic.py:11357(min)
        1    0.000    0.000    0.438    0.438 c:\Virtual_Environments\theeng\lib\site-packages\pymoo\factory.py:19(get_reference_directions)
        1    0.000    0.000    0.000    0.000 c:\Virtual_Environments\theeng\lib\site-packages\theeng\core\sampler.py:51(__init__)
        9    0.000    0.000    0.000    0.000 c:\Virtual_Environments\theeng\lib\site-packages\plotly\basedatatypes.py:147(_prepend_dot_if_not_number)
        3    0.000    0.000    0.000    0.000 c:\Virtual_Environments\theeng\lib\site-packages\plotly\animation.py:5(__init__)
        1    0.000    0.000    0.000    0.000 c:\Virtual_Environments\theeng\lib\site-packages\pymoo\util\ref_dirs\energy.py:14(__init__)
        3    0.000    0.000    0.000    0.000 c:\Virtual_Environments\theeng\lib\site-packages\plotly\graph_objs\layout\_updatemenu.py:689(__init__)
        1    0.000    0.000    0.000    0.000 c:\Virtual_Environments\theeng\lib\site-packages\plotly\graph_objs\layout\_hoverlabel.py:5(Hoverlabel)
        1    0.000    0.000    0.000    0.000 c:\Virtual_Environments\theeng\lib\site-packages\plotly\io\_utils.py:1(<module>)
        1    0.000    0.000    0.000    0.000 c:\Virtual_Environments\theeng\lib\site-packages\plotly\graph_objs\layout\xaxis\_title.py:5(Title)
        3    0.000    0.000    0.000    0.000 c:\Virtual_Environments\theeng\lib\site-packages\pandas\core\internals\ops.py:101(_get_same_shape_values)
        1    0.000    0.000    0.046    0.046 c:\Virtual_Environments\theeng\lib\site-packages\pymoo\algorithms\base\genetic.py:78(_initialize_advance)
        6    0.000    0.000    0.000    0.000 c:\Virtual_Environments\theeng\lib\site-packages\joblib\memory.py:937(cache)
        5    0.000    0.000    0.000    0.000 c:\Virtual_Environments\theeng\lib\site-packages\joblib\parallel.py:248(unregister)
        1    0.000    0.000    0.000    0.000 c:\Virtual_Environments\theeng\lib\site-packages\plotly\graph_objs\layout\_template.py:5(Template)
        1    0.000    0.000    0.000    0.000 c:\Virtual_Environments\theeng\lib\site-packages\pandas\io\formats\string.py:20(StringFormatter)
        3    0.000    0.000    0.000    0.000 c:\Virtual_Environments\theeng\lib\site-packages\plotly\graph_objs\layout\_uniformtext.py:80(__init__)
        6    0.000    0.000    0.000    0.000 <frozen importlib._bootstrap_external>:1153(__init__)
        1    0.000    0.000    0.000    0.000 C:\Python38\lib\cProfile.py:133(__exit__)
        2    0.000    0.000    0.000    0.000 c:\Virtual_Environments\theeng\lib\site-packages\numpy\core\numerictypes.py:597(find_common_type)
       11    0.000    0.000    0.000    0.000 C:\Python38\lib\queue.py:208(_qsize)
        3    0.000    0.000    0.001    0.000 c:\Virtual_Environments\theeng\lib\site-packages\pandas\core\ops\common.py:57(new_method)
       10    0.000    0.000    0.001    0.000 c:\Virtual_Environments\theeng\lib\site-packages\pandas\core\indexes\base.py:6576(_maybe_cast_listlike_indexer)
        1    0.000    0.000    0.001    0.001 c:\Virtual_Environments\theeng\lib\site-packages\pandas\core\apply.py:731(apply)
        1    0.000    0.000    0.000    0.000 c:\Virtual_Environments\theeng\lib\site-packages\pymoo\core\problem.py:375(__init__)
        1    0.000    0.000    0.000    0.000 c:\Virtual_Environments\theeng\lib\site-packages\theeng\core\problem.py:64(setBounds)
        1    0.000    0.000    1.231    1.231 c:\Virtual_Environments\theeng\lib\site-packages\theeng\core\simulator.py:15(generate)
        3    0.000    0.000    0.000    0.000 c:\Virtual_Environments\theeng\lib\site-packages\plotly\graph_objs\layout\_legend.py:778(__init__)
        3    0.000    0.000    0.000    0.000 c:\Virtual_Environments\theeng\lib\site-packages\plotly\graph_objs\layout\_activeselection.py:103(__init__)
       34    0.000    0.000    0.000    0.000 C:\Python38\lib\inspect.py:366(<lambda>)
       20    0.000    0.000    0.000    0.000 C:\Python38\lib\inspect.py:487(getmro)
        2    0.000    0.000    0.000    0.000 c:\Virtual_Environments\theeng\lib\site-packages\pandas\_config\config.py:433(__init__)
       13    0.000    0.000    0.000    0.000 c:\Virtual_Environments\theeng\lib\site-packages\pandas\core\dtypes\cast.py:1931(np_can_hold_element)
        2    0.000    0.000    0.000    0.000 c:\Virtual_Environments\theeng\lib\site-packages\pandas\core\indexes\base.py:1823(_set_names)
       38    0.000    0.000    0.000    0.000 c:\Virtual_Environments\theeng\lib\site-packages\pandas\core\indexes\base.py:7362(<genexpr>)
        3    0.000    0.000    0.000    0.000 c:\Virtual_Environments\theeng\lib\site-packages\pymoo\core\callback.py:3(__init__)
        5    0.000    0.000    0.000    0.000 c:\Virtual_Environments\theeng\lib\site-packages\joblib\parallel.py:245(__exit__)
        2    0.000    0.000    0.013    0.006 c:\Virtual_Environments\theeng\lib\site-packages\pandas\io\formats\string.py:35(_get_strcols)
        3    0.000    0.000    0.000    0.000 c:\Virtual_Environments\theeng\lib\site-packages\plotly\animation.py:51(__init__)
        1    0.000    0.000    0.000    0.000 c:\Virtual_Environments\theeng\lib\site-packages\plotly\validators\layout\xaxis\__init__.py:1(<module>)
        1    0.000    0.000    0.000    0.000 c:\Virtual_Environments\theeng\lib\site-packages\plotly\validators\scatter\__init__.py:1(<module>)
        1    0.000    0.000    0.000    0.000 c:\Virtual_Environments\theeng\lib\site-packages\plotly\validators\layout\yaxis\_automargin.py:5(__init__)
        2    0.000    0.000    0.000    0.000 C:\Python38\lib\sre_compile.py:413(<listcomp>)
        4    0.000    0.000    0.000    0.000 c:\Virtual_Environments\theeng\lib\site-packages\pandas\core\ops\array_ops.py:445(maybe_prepare_scalar_for_op)
        4    0.000    0.000    0.000    0.000 c:\Virtual_Environments\theeng\lib\site-packages\pandas\core\computation\expressions.py:64(_evaluate_standard)
        6    0.000    0.000    0.000    0.000 c:\Virtual_Environments\theeng\lib\site-packages\pandas\core\indexes\base.py:4441(_maybe_preserve_names)
        3    0.000    0.000    0.000    0.000 c:\Virtual_Environments\theeng\lib\site-packages\plotly\_subplots.py:652(<listcomp>)
        6    0.000    0.000    0.000    0.000 c:\Virtual_Environments\theeng\lib\site-packages\plotly\_subplots.py:865(update_axis_matches)
       29    0.000    0.000    0.000    0.000 c:\Virtual_Environments\theeng\lib\site-packages\plotly\basedatatypes.py:5707(<dictcomp>)
        1    0.000    0.000    0.000    0.000 c:\Virtual_Environments\theeng\lib\site-packages\pymoo\util\ref_dirs\energy_layer.py:1(<module>)
        1    0.000    0.000    0.000    0.000 c:\Virtual_Environments\theeng\lib\site-packages\plotly\graph_objs\table\header\_line.py:5(Line)
       29    0.000    0.000    0.000    0.000 c:\Virtual_Environments\theeng\lib\site-packages\numpy\core\numeric.py:628(_flatnonzero_dispatcher)
        3    0.000    0.000    0.000    0.000 c:\Virtual_Environments\theeng\lib\site-packages\pandas\core\internals\concat.py:650(<genexpr>)
        3    0.000    0.000    0.000    0.000 c:\Virtual_Environments\theeng\lib\site-packages\_plotly_utils\basevalidators.py:882(validate_coerce)
        4    0.000    0.000    0.000    0.000 c:\Virtual_Environments\theeng\lib\site-packages\_plotly_utils\basevalidators.py:2503(__init__)
       23    0.000    0.000    0.000    0.000 C:\Engineering Programs\FreeCAD 0.20\Mod\Fem\femsolver\calculix\write_constraint_fixed.py:37(get_constraint_title)
        1    0.000    0.000    0.000    0.000 c:\Virtual_Environments\theeng\lib\site-packages\plotly\exceptions.py:1(<module>)
        3    0.000    0.000    0.000    0.000 c:\Virtual_Environments\theeng\lib\site-packages\plotly\graph_objs\layout\_smith.py:387(__init__)
        1    0.000    0.000    0.000    0.000 c:\Virtual_Environments\theeng\lib\site-packages\plotly\validators\__init__.py:1(<module>)
        3    0.000    0.000    0.000    0.000 C:\Python38\lib\_collections_abc.py:72(_check_methods)
       21    0.000    0.000    0.000    0.000 c:\Virtual_Environments\theeng\lib\site-packages\numpy\core\fromnumeric.py:3152(ndim)
        4    0.000    0.000    0.000    0.000 <__array_function__ internals>:177(sort)
        4    0.000    0.000    0.000    0.000 <__array_function__ internals>:177(array_equal)
        1    0.000    0.000    0.000    0.000 C:\Python38\lib\typing.py:659(__init__)
        4    0.000    0.000    0.001    0.000 c:\Virtual_Environments\theeng\lib\site-packages\pandas\core\indexes\base.py:1443(format)
        2    0.000    0.000    0.000    0.000 c:\Virtual_Environments\theeng\lib\site-packages\pandas\core\reshape\concat.py:648(_get_concat_axis)
        3    0.000    0.000    0.000    0.000 c:\Virtual_Environments\theeng\lib\site-packages\pandas\core\internals\managers.py:1575(<listcomp>)
        1    0.000    0.000    0.000    0.000 C:\Engineering Programs\FreeCAD 0.20\Mod\Fem\femobjects\result_mechanical.py:301(onDocumentRestored)
        1    0.000    0.000    0.000    0.000 c:\Virtual_Environments\theeng\lib\site-packages\plotly\graph_objs\layout\_colorscale.py:5(Colorscale)
        6    0.000    0.000    0.003    0.001 c:\Virtual_Environments\theeng\lib\site-packages\plotly\graph_objs\_layout.py:2180(margin)
        1    0.000    0.000    0.000    0.000 c:\Virtual_Environments\theeng\lib\site-packages\plotly\validators\histogram2dcontour\__init__.py:1(<module>)
        3    0.000    0.000    0.000    0.000 C:\Python38\lib\sre_parse.py:295(_class_escape)
        2    0.000    0.000    0.000    0.000 c:\Virtual_Environments\theeng\lib\site-packages\pandas\core\indexes\base.py:7348(trim_front)
        8    0.000    0.000    0.000    0.000 c:\Virtual_Environments\theeng\lib\site-packages\pandas\core\internals\managers.py:275(arrays)
        4    0.000    0.000    0.000    0.000 c:\Virtual_Environments\theeng\lib\site-packages\pandas\io\formats\format.py:655(show_row_idx_names)
       23    0.000    0.000    0.000    0.000 C:\Engineering Programs\FreeCAD 0.20\Mod\Fem\femsolver\calculix\write_constraint_fixed.py:33(get_sets_name)
        1    0.000    0.000    0.000    0.000 c:\Virtual_Environments\theeng\lib\site-packages\plotly\validators\layout\yaxis\__init__.py:1(<module>)
        1    0.000    0.000    0.000    0.000 c:\Virtual_Environments\theeng\lib\site-packages\plotly\validators\heatmap\__init__.py:1(<module>)
       23    0.000    0.000    0.000    0.000 C:\Python38\lib\contextlib.py:359(__exit__)
        5    0.000    0.000    0.000    0.000 c:\Virtual_Environments\theeng\lib\site-packages\pandas\core\indexes\base.py:830(_rename)
        6    0.000    0.000    0.000    0.000 c:\Virtual_Environments\theeng\lib\site-packages\pandas\core\internals\blocks.py:1912(get_values)
        1    0.000    0.000    0.000    0.000 c:\Virtual_Environments\theeng\lib\site-packages\joblib\disk.py:42(memstr_to_bytes)
        5    0.000    0.000    0.000    0.000 c:\Virtual_Environments\theeng\lib\site-packages\sklearn\utils\parallel.py:103(__init__)
        3    0.000    0.000    0.000    0.000 c:\Virtual_Environments\theeng\lib\site-packages\plotly\basedatatypes.py:2232(<listcomp>)
        1    0.000    0.000    0.000    0.000 c:\Virtual_Environments\theeng\lib\site-packages\plotly\basedatatypes.py:2795(_dispatch_trace_change_callbacks)
        1    0.000    0.000    0.000    0.000 c:\Virtual_Environments\theeng\lib\site-packages\plotly\validators\layout\margin\__init__.py:1(<module>)
        1    0.000    0.000    0.000    0.000 c:\Virtual_Environments\theeng\lib\site-packages\plotly\validators\mesh3d\__init__.py:1(<module>)
        1    0.000    0.000    0.000    0.000 c:\Virtual_Environments\theeng\lib\site-packages\plotly\validators\layout\scene\yaxis\__init__.py:1(<module>)
        6    0.000    0.000    0.000    0.000 c:\Virtual_Environments\theeng\lib\site-packages\pandas\core\indexes\base.py:4437(_wrap_reindex_result)
        2    0.000    0.000    0.000    0.000 c:\Virtual_Environments\theeng\lib\site-packages\sklearn\metrics\_scorer.py:447(check_scoring)
        2    0.000    0.000    0.000    0.000 c:\Virtual_Environments\theeng\lib\site-packages\plotly\express\_core.py:1707(<listcomp>)
        6    0.000    0.000    0.004    0.001 c:\Virtual_Environments\theeng\lib\site-packages\plotly\graph_objs\layout\_colorscale.py:60(sequential)
        3    0.000    0.000    0.000    0.000 c:\Virtual_Environments\theeng\lib\site-packages\plotly\graph_objs\layout\title\_font.py:144(__init__)
        3    0.000    0.000    0.000    0.000 c:\Virtual_Environments\theeng\lib\site-packages\plotly\graph_objs\layout\_newshape.py:240(__init__)
        1    0.000    0.000    0.000    0.000 c:\Virtual_Environments\theeng\lib\site-packages\plotly\validators\layout\annotation\__init__.py:1(<module>)
        1    0.000    0.000    0.000    0.000 c:\Virtual_Environments\theeng\lib\site-packages\plotly\validators\scatter\fillpattern\__init__.py:1(<module>)
        2    0.000    0.000    0.001    0.000 c:\Virtual_Environments\theeng\lib\site-packages\pandas\core\arraylike.py:108(__sub__)
        1    0.000    0.000    0.000    0.000 c:\Virtual_Environments\theeng\lib\site-packages\pandas\core\strings\accessor.py:2870(len)
        1    0.000    0.000    0.000    0.000 c:\Virtual_Environments\theeng\lib\site-packages\pymoo\util\normalization.py:180(denormalize)
        3    0.000    0.000    0.000    0.000 c:\Virtual_Environments\theeng\lib\site-packages\sklearn\utils\validation.py:423(indexable)
        1    0.000    0.000    0.000    0.000 C:\Engineering Programs\FreeCAD 0.20\Mod\Fem\femsolver\calculix\write_constraint_transform.py:24(<module>)
        1    0.000    0.000    0.000    0.000 c:\Virtual_Environments\theeng\lib\site-packages\pymoo\util\ref_dirs\reduction.py:1(<module>)
        1    0.000    0.000    0.000    0.000 c:\Virtual_Environments\theeng\lib\site-packages\plotly\validators\layout\_mapbox.py:5(__init__)
        1    0.000    0.000    0.000    0.000 c:\Virtual_Environments\theeng\lib\site-packages\plotly\graph_objs\layout\legend\_title.py:1(<module>)
        1    0.000    0.000    0.000    0.000 c:\Virtual_Environments\theeng\lib\site-packages\plotly\validators\contour\__init__.py:1(<module>)
        1    0.000    0.000    0.000    0.000 c:\Virtual_Environments\theeng\lib\site-packages\plotly\validators\scatterternary\__init__.py:1(<module>)
        1    0.000    0.000    0.000    0.000 c:\Virtual_Environments\theeng\lib\site-packages\plotly\graph_objs\table\cells\_line.py:5(Line)
        1    0.000    0.000    0.000    0.000 c:\Virtual_Environments\theeng\lib\site-packages\plotly\validators\layout\xaxis\_automargin.py:5(__init__)
       25    0.000    0.000    0.000    0.000 c:\Virtual_Environments\theeng\lib\site-packages\numpy\core\multiarray.py:740(dot)
       36    0.000    0.000    0.000    0.000 c:\Virtual_Environments\theeng\lib\site-packages\scipy\sparse\_csr.py:231(_swap)
       12    0.000    0.000    0.000    0.000 c:\Virtual_Environments\theeng\lib\site-packages\scipy\linalg\_misc.py:181(_datacopied)
       12    0.000    0.000    0.000    0.000 c:\Virtual_Environments\theeng\lib\site-packages\plotly\basedatatypes.py:3082(<dictcomp>)
        1    0.000    0.000    0.001    0.001 C:\Engineering Programs\FreeCAD 0.20\Mod\Fem\femsolver\task.py:25(<module>)
        1    0.000    0.000    0.000    0.000 c:\Virtual_Environments\theeng\lib\site-packages\pymoo\util\ref_dirs\optimizer.py:32(__init__)
        1    0.000    0.000    0.000    0.000 c:\Virtual_Environments\theeng\lib\site-packages\pymoo\util\ref_dirs\optimizer.py:1(<module>)
        1    0.000    0.000    0.000    0.000 c:\Virtual_Environments\theeng\lib\site-packages\plotly\validators\layout\scene\zaxis\__init__.py:1(<module>)
        1    0.000    0.000    0.000    0.000 c:\Virtual_Environments\theeng\lib\site-packages\plotly\graph_objs\layout\yaxis\_title.py:5(Title)
        1    0.000    0.000    0.000    0.000 c:\Virtual_Environments\theeng\lib\site-packages\plotly\validators\parcoords\domain\__init__.py:1(<module>)
        1    0.000    0.000    0.000    0.000 c:\Virtual_Environments\theeng\lib\site-packages\plotly\validators\parcoords\domain\_x.py:5(__init__)
        2    0.000    0.000    0.000    0.000 c:\Virtual_Environments\theeng\lib\site-packages\pandas\_config\config.py:441(__enter__)
        1    0.000    0.000    0.017    0.017 c:\Virtual_Environments\theeng\lib\site-packages\pymoo\util\function_loader.py:57(__init__)
       30    0.000    0.000    0.000    0.000 c:\Virtual_Environments\theeng\lib\site-packages\sklearn\base.py:315(_more_tags)
        2    0.000    0.000    0.000    0.000 {built-in method nt.getcwd}
       21    0.000    0.000    0.000    0.000 {method 'get' of 'mappingproxy' objects}
        1    0.000    0.000    0.000    0.000 c:\Virtual_Environments\theeng\lib\site-packages\plotly\validators\layout\colorscale\__init__.py:1(<module>)
        1    0.000    0.000    0.000    0.000 c:\Virtual_Environments\theeng\lib\site-packages\plotly\validators\bar\__init__.py:1(<module>)
        1    0.000    0.000    0.000    0.000 c:\Virtual_Environments\theeng\lib\site-packages\plotly\validators\histogram2d\__init__.py:1(<module>)
        1    0.000    0.000    0.000    0.000 c:\Virtual_Environments\theeng\lib\site-packages\plotly\graph_objs\layout\_transition.py:5(Transition)
        1    0.000    0.000    0.000    0.000 c:\Virtual_Environments\theeng\lib\site-packages\plotly\validators\layout\scene\_yaxis.py:1(<module>)
       33    0.000    0.000    0.000    0.000 c:\Virtual_Environments\theeng\lib\site-packages\numpy\core\fromnumeric.py:1888(_nonzero_dispatcher)
      2/1    0.000    0.000    0.000    0.000 c:\Virtual_Environments\theeng\lib\site-packages\pandas\core\construction.py:881(create_series_with_explicit_dtype)
       18    0.000    0.000    0.000    0.000 c:\Virtual_Environments\theeng\lib\site-packages\pandas\core\indexes\base.py:1194(_maybe_disallow_fill)
        1    0.000    0.000    0.000    0.000 c:\Virtual_Environments\theeng\lib\site-packages\pandas\core\indexes\base.py:5407(_concat)
        2    0.000    0.000    0.000    0.000 c:\Virtual_Environments\theeng\lib\site-packages\pandas\core\indexes\api.py:108(_get_distinct_objs)
        2    0.000    0.000    0.001    0.000 c:\Virtual_Environments\theeng\lib\site-packages\pandas\core\reshape\concat.py:631(_get_new_axes)
        1    0.000    0.000    0.000    0.000 c:\Virtual_Environments\theeng\lib\site-packages\pymoo\algorithms\moo\nsga3.py:125(__init__)
        2    0.000    0.000    0.000    0.000 {pandas._libs.algos.take_2d_axis0_float64_float64}
        1    0.000    0.000    0.000    0.000 c:\Virtual_Environments\theeng\lib\site-packages\plotly\validators\bar\marker\pattern\__init__.py:1(<module>)
        1    0.000    0.000    0.000    0.000 c:\Virtual_Environments\theeng\lib\site-packages\plotly\validators\carpet\__init__.py:1(<module>)
        1    0.000    0.000    0.000    0.000 c:\Virtual_Environments\theeng\lib\site-packages\plotly\graph_objs\carpet\__init__.py:1(<module>)
        1    0.000    0.000    0.000    0.000 c:\Virtual_Environments\theeng\lib\site-packages\plotly\validators\heatmapgl\colorbar\__init__.py:1(<module>)
        1    0.000    0.000    0.000    0.000 c:\Virtual_Environments\theeng\lib\site-packages\plotly\validators\histogram2d\colorbar\__init__.py:1(<module>)
        1    0.000    0.000    0.000    0.000 c:\Virtual_Environments\theeng\lib\site-packages\plotly\graph_objs\mesh3d\__init__.py:1(<module>)
        1    0.000    0.000    0.000    0.000 c:\Virtual_Environments\theeng\lib\site-packages\plotly\graph_objs\parcoords\__init__.py:1(<module>)
        1    0.000    0.000    0.000    0.000 c:\Virtual_Environments\theeng\lib\site-packages\plotly\validators\pie\__init__.py:1(<module>)
        6    0.000    0.000    0.000    0.000 {method 'intersection' of 'set' objects}
        1    0.000    0.000    0.000    0.000 c:\Virtual_Environments\theeng\lib\site-packages\plotly\graph_objs\layout\template\__init__.py:1(<module>)
        6    0.000    0.000    0.003    0.001 c:\Virtual_Environments\theeng\lib\site-packages\plotly\graph_objs\_layout.py:941(colorscale)
        1    0.000    0.000    0.000    0.000 c:\Virtual_Environments\theeng\lib\site-packages\pymoo\util\ref_dirs\reduction.py:41(__init__)
        1    0.000    0.000    0.000    0.000 c:\Virtual_Environments\theeng\lib\site-packages\plotly\validators\layout\legend\__init__.py:1(<module>)
        1    0.000    0.000    0.000    0.000 c:\Virtual_Environments\theeng\lib\site-packages\plotly\graph_objs\barpolar\__init__.py:1(<module>)
        1    0.000    0.000    0.000    0.000 c:\Virtual_Environments\theeng\lib\site-packages\plotly\validators\bar\error_y\_color.py:5(__init__)
        1    0.000    0.000    0.000    0.000 c:\Virtual_Environments\theeng\lib\site-packages\plotly\validators\heatmap\colorbar\__init__.py:1(<module>)
        1    0.000    0.000    0.000    0.000 c:\Virtual_Environments\theeng\lib\site-packages\plotly\validators\histogram2dcontour\colorbar\__init__.py:1(<module>)
        1    0.000    0.000    0.000    0.000 c:\Virtual_Environments\theeng\lib\site-packages\plotly\graph_objs\histogram\__init__.py:1(<module>)
        1    0.000    0.000    0.000    0.000 c:\Virtual_Environments\theeng\lib\site-packages\plotly\graph_objs\scattercarpet\__init__.py:1(<module>)
        1    0.000    0.000    0.000    0.000 c:\Virtual_Environments\theeng\lib\site-packages\plotly\graph_objs\scattergeo\__init__.py:1(<module>)
        1    0.000    0.000    0.000    0.000 c:\Virtual_Environments\theeng\lib\site-packages\plotly\validators\scattergl\marker\__init__.py:1(<module>)
        1    0.000    0.000    0.000    0.000 c:\Virtual_Environments\theeng\lib\site-packages\plotly\graph_objs\scatterpolar\__init__.py:1(<module>)
        1    0.000    0.000    0.000    0.000 c:\Virtual_Environments\theeng\lib\site-packages\plotly\graph_objs\scatterpolar\marker\__init__.py:1(<module>)
        1    0.000    0.000    0.000    0.000 c:\Virtual_Environments\theeng\lib\site-packages\plotly\validators\surface\__init__.py:1(<module>)
        1    0.000    0.000    0.000    0.000 c:\Virtual_Environments\theeng\lib\site-packages\plotly\validators\layout\ternary\caxis\__init__.py:1(<module>)
        1    0.000    0.000    0.000    0.000 c:\Virtual_Environments\theeng\lib\site-packages\plotly\validators\parcoords\dimension\__init__.py:1(<module>)
       33    0.000    0.000    0.000    0.000 c:\Virtual_Environments\theeng\lib\site-packages\numpy\core\multiarray.py:668(result_type)
        1    0.000    0.000    0.000    0.000 c:\Virtual_Environments\theeng\lib\site-packages\numpy\core\_methods.py:267(_std)
        5    0.000    0.000    0.000    0.000 C:\Python38\lib\queue.py:216(_get)
        1    0.000    0.000    0.000    0.000 c:\Virtual_Environments\theeng\lib\site-packages\pandas\core\generic.py:11443(_min_count_stat_function)
        3    0.000    0.000    0.000    0.000 c:\Virtual_Environments\theeng\lib\site-packages\pandas\core\internals\blocks.py:301(getitem_block_columns)
        5    0.000    0.000    0.000    0.000 c:\Virtual_Environments\theeng\lib\site-packages\theeng\core\problem.py:132(getPnames)
        5    0.000    0.000    0.000    0.000 c:\Virtual_Environments\theeng\lib\site-packages\sklearn\utils\parallel.py:93(delayed_function)
        6    0.000    0.000    0.000    0.000 c:\Virtual_Environments\theeng\lib\site-packages\sklearn\pipeline.py:320(<dictcomp>)
        6    0.000    0.000    0.000    0.000 c:\Virtual_Environments\theeng\lib\site-packages\plotly\basedatatypes.py:5437(_restyle_child)
        1    0.000    0.000    0.000    0.000 c:\Virtual_Environments\theeng\lib\site-packages\plotly\graph_objs\scatter\__init__.py:1(<module>)
        1    0.000    0.000    0.000    0.000 c:\Virtual_Environments\theeng\lib\site-packages\plotly\validators\layout\title\__init__.py:1(<module>)
        1    0.000    0.000    0.000    0.000 c:\Virtual_Environments\theeng\lib\site-packages\plotly\graph_objs\layout\_smith.py:5(Smith)
        1    0.000    0.000    0.000    0.000 c:\Virtual_Environments\theeng\lib\site-packages\plotly\graph_objs\layout\legend\__init__.py:1(<module>)
        1    0.000    0.000    0.000    0.000 c:\Virtual_Environments\theeng\lib\site-packages\plotly\validators\barpolar\marker\pattern\__init__.py:1(<module>)
        1    0.000    0.000    0.000    0.000 c:\Virtual_Environments\theeng\lib\site-packages\plotly\validators\bar\marker\line\__init__.py:1(<module>)
        1    0.000    0.000    0.000    0.000 c:\Virtual_Environments\theeng\lib\site-packages\plotly\validators\scatter\_mode.py:5(__init__)
        1    0.000    0.000    0.000    0.000 c:\Virtual_Environments\theeng\lib\site-packages\plotly\validators\heatmapgl\__init__.py:1(<module>)
        1    0.000    0.000    0.000    0.000 c:\Virtual_Environments\theeng\lib\site-packages\plotly\validators\scatter3d\line\colorbar\__init__.py:1(<module>)
        1    0.000    0.000    0.000    0.000 c:\Virtual_Environments\theeng\lib\site-packages\plotly\validators\scattergeo\marker\__init__.py:1(<module>)
        1    0.000    0.000    0.000    0.000 c:\Virtual_Environments\theeng\lib\site-packages\plotly\graph_objs\scattergeo\marker\__init__.py:1(<module>)
        1    0.000    0.000    0.000    0.000 c:\Virtual_Environments\theeng\lib\site-packages\plotly\validators\scattergl\__init__.py:1(<module>)
        1    0.000    0.000    0.000    0.000 c:\Virtual_Environments\theeng\lib\site-packages\plotly\graph_objs\scattergl\__init__.py:1(<module>)
        1    0.000    0.000    0.000    0.000 c:\Virtual_Environments\theeng\lib\site-packages\plotly\validators\scattergl\marker\colorbar\__init__.py:1(<module>)
        1    0.000    0.000    0.000    0.000 c:\Virtual_Environments\theeng\lib\site-packages\plotly\graph_objs\scattermapbox\__init__.py:1(<module>)
        1    0.000    0.000    0.000    0.000 c:\Virtual_Environments\theeng\lib\site-packages\plotly\validators\scatterpolar\marker\colorbar\__init__.py:1(<module>)
        1    0.000    0.000    0.000    0.000 c:\Virtual_Environments\theeng\lib\site-packages\plotly\graph_objs\table\__init__.py:1(<module>)
        1    0.000    0.000    0.000    0.000 c:\Virtual_Environments\theeng\lib\site-packages\plotly\validators\layout\geo\__init__.py:1(<module>)
        1    0.000    0.000    0.000    0.000 c:\Virtual_Environments\theeng\lib\site-packages\plotly\graph_objs\layout\polar\__init__.py:1(<module>)
        1    0.000    0.000    0.000    0.000 c:\Virtual_Environments\theeng\lib\site-packages\plotly\graph_objs\layout\scene\__init__.py:1(<module>)
        1    0.000    0.000    0.000    0.000 c:\Virtual_Environments\theeng\lib\site-packages\plotly\validators\layout\scene\xaxis\__init__.py:1(<module>)
        1    0.000    0.000    0.000    0.000 c:\Virtual_Environments\theeng\lib\site-packages\pandas\core\apply.py:915(wrap_results)
        2    0.000    0.000    0.000    0.000 c:\Virtual_Environments\theeng\lib\site-packages\pandas\core\reshape\concat.py:638(_get_comb_axis)
        3    0.000    0.000    0.000    0.000 c:\Virtual_Environments\theeng\lib\site-packages\pandas\core\internals\concat.py:660(<genexpr>)
        1    0.000    0.000    0.000    0.000 c:\Virtual_Environments\theeng\lib\site-packages\pandas\io\formats\format.py:736(_calc_max_rows_fitted)
        1    0.000    0.000    0.000    0.000 c:\Virtual_Environments\theeng\lib\site-packages\pandas\core\groupby\ops.py:990(result_index)
        1    0.000    0.000    0.000    0.000 c:\Virtual_Environments\theeng\lib\site-packages\pandas\core\groupby\grouper.py:649(group_index)
        1    0.000    0.000    0.000    0.000 c:\Virtual_Environments\theeng\lib\site-packages\theeng\core\problem.py:80(setResults)
       12    0.000    0.000    0.000    0.000 c:\Virtual_Environments\theeng\lib\site-packages\scipy\sparse\_sputils.py:268(isdense)
        1    0.000    0.000    0.000    0.000 c:\Virtual_Environments\theeng\lib\site-packages\joblib\_parallel_backends.py:513(effective_n_jobs)
        1    0.000    0.000    0.001    0.001 c:\Virtual_Environments\theeng\lib\site-packages\plotly\express\_core.py:1979(<dictcomp>)
        3    0.000    0.000    0.000    0.000 c:\Virtual_Environments\theeng\lib\site-packages\plotly\_subplots.py:398(_check_keys_and_fill)
        3    0.000    0.000    0.000    0.000 c:\Virtual_Environments\theeng\lib\site-packages\plotly\basedatatypes.py:1225(_filter_by_selector)
       23    0.000    0.000    0.000    0.000 C:\Engineering Programs\FreeCAD 0.20\Mod\Fem\femsolver\calculix\write_constraint_fixed.py:41(get_before_write_meshdata_constraint)
       23    0.000    0.000    0.000    0.000 C:\Engineering Programs\FreeCAD 0.20\Mod\Fem\femsolver\calculix\write_constraint_fixed.py:53(get_after_write_constraint)
        1    0.000    0.000    0.000    0.000 C:\Engineering Programs\FreeCAD 0.20\Mod\Fem\femsolver\solverbase.py:25(<module>)
        1    0.000    0.000    0.001    0.001 c:\Virtual_Environments\theeng\lib\site-packages\plotly\validators\layout\xaxis\_anchor.py:5(__init__)
        1    0.000    0.000    0.000    0.000 c:\Virtual_Environments\theeng\lib\site-packages\plotly\validators\scatter\marker\__init__.py:1(<module>)
        1    0.000    0.000    0.000    0.000 c:\Virtual_Environments\theeng\lib\site-packages\plotly\validators\barpolar\marker\__init__.py:1(<module>)
        1    0.000    0.000    0.000    0.000 c:\Virtual_Environments\theeng\lib\site-packages\plotly\graph_objs\bar\__init__.py:1(<module>)
        1    0.000    0.000    0.000    0.000 c:\Virtual_Environments\theeng\lib\site-packages\plotly\graph_objs\bar\marker\__init__.py:1(<module>)
        1    0.000    0.000    0.000    0.000 c:\Virtual_Environments\theeng\lib\site-packages\plotly\graph_objs\heatmapgl\__init__.py:1(<module>)
        1    0.000    0.000    0.000    0.000 c:\Virtual_Environments\theeng\lib\site-packages\plotly\graph_objs\heatmap\__init__.py:1(<module>)
        1    0.000    0.000    0.000    0.000 c:\Virtual_Environments\theeng\lib\site-packages\plotly\validators\histogram\__init__.py:1(<module>)
        1    0.000    0.000    0.000    0.000 c:\Virtual_Environments\theeng\lib\site-packages\plotly\validators\histogram\marker\pattern\__init__.py:1(<module>)
        1    0.000    0.000    0.000    0.000 c:\Virtual_Environments\theeng\lib\site-packages\plotly\validators\layout\coloraxis\__init__.py:1(<module>)
        1    0.000    0.000    0.000    0.000 c:\Virtual_Environments\theeng\lib\site-packages\plotly\validators\scatter3d\__init__.py:1(<module>)
        1    0.000    0.000    0.000    0.000 c:\Virtual_Environments\theeng\lib\site-packages\plotly\graph_objs\scatter3d\__init__.py:1(<module>)
        1    0.000    0.000    0.000    0.000 c:\Virtual_Environments\theeng\lib\site-packages\plotly\graph_objs\scatter3d\marker\__init__.py:1(<module>)
        1    0.000    0.000    0.000    0.000 c:\Virtual_Environments\theeng\lib\site-packages\plotly\validators\scatter3d\marker\colorbar\__init__.py:1(<module>)
        1    0.000    0.000    0.000    0.000 c:\Virtual_Environments\theeng\lib\site-packages\plotly\validators\scattergeo\__init__.py:1(<module>)
        1    0.000    0.000    0.000    0.000 c:\Virtual_Environments\theeng\lib\site-packages\plotly\validators\scattergeo\marker\colorbar\__init__.py:1(<module>)
        1    0.000    0.000    0.000    0.000 c:\Virtual_Environments\theeng\lib\site-packages\plotly\validators\scattermapbox\marker\__init__.py:1(<module>)
        1    0.000    0.000    0.000    0.000 c:\Virtual_Environments\theeng\lib\site-packages\plotly\validators\scatterpolar\__init__.py:1(<module>)
        1    0.000    0.000    0.000    0.000 c:\Virtual_Environments\theeng\lib\site-packages\plotly\validators\table\cells\__init__.py:1(<module>)
        1    0.000    0.000    0.000    0.000 c:\Virtual_Environments\theeng\lib\site-packages\plotly\graph_objs\table\cells\__init__.py:1(<module>)
        1    0.000    0.000    0.000    0.000 c:\Virtual_Environments\theeng\lib\site-packages\plotly\validators\layout\mapbox\_style.py:5(__init__)
        1    0.000    0.000    0.000    0.000 c:\Virtual_Environments\theeng\lib\site-packages\plotly\validators\layout\shape\line\__init__.py:1(<module>)
        1    0.000    0.000    0.000    0.000 c:\Virtual_Environments\theeng\lib\site-packages\plotly\validators\layout\ternary\aaxis\__init__.py:1(<module>)
        1    0.000    0.000    0.000    0.000 c:\Virtual_Environments\theeng\lib\site-packages\plotly\graph_objs\layout\xaxis\__init__.py:1(<module>)
       22    0.000    0.000    0.000    0.000 c:\Virtual_Environments\theeng\lib\site-packages\numpy\core\fromnumeric.py:1034(_argsort_dispatcher)
        1    0.000    0.000    0.000    0.000 c:\Virtual_Environments\theeng\lib\site-packages\pandas\core\indexes\base.py:7437(get_unanimous_names)
        7    0.000    0.000    0.001    0.000 c:\Virtual_Environments\theeng\lib\site-packages\pandas\core\groupby\groupby.py:679(indices)
       30    0.000    0.000    0.000    0.000 c:\Virtual_Environments\theeng\lib\site-packages\pymoo\core\repair.py:18(_do)
        1    0.000    0.000    0.000    0.000 c:\Virtual_Environments\theeng\lib\site-packages\theeng\algorithms\samplers.py:8(latinHypercube)
        1    0.000    0.000    0.000    0.000 c:\Virtual_Environments\theeng\lib\site-packages\_plotly_utils\basevalidators.py:1610(<listcomp>)
        1    0.000    0.000    0.000    0.000 c:\Virtual_Environments\theeng\lib\site-packages\plotly\express\_core.py:294(<listcomp>)
        1    0.000    0.000    0.002    0.002 c:\Virtual_Environments\theeng\lib\site-packages\plotly\basedatatypes.py:1302(update_traces)
        1    0.000    0.000    0.000    0.000 C:\Engineering Programs\FreeCAD 0.20\Mod\Fem\femsolver\calculix\write_constraint_centrif.py:24(<module>)
        1    0.000    0.000    0.000    0.000 C:\Engineering Programs\FreeCAD 0.20\Mod\Fem\femmesh\meshsetsgetter.py:39(MeshSetsGetter)
        1    0.000    0.000    0.000    0.000 c:\Virtual_Environments\theeng\lib\site-packages\plotly\graph_objs\layout\coloraxis\__init__.py:1(<module>)
        1    0.000    0.000    0.000    0.000 c:\Virtual_Environments\theeng\lib\site-packages\plotly\validators\scatter\marker\_color.py:5(__init__)
        1    0.000    0.000    0.000    0.000 c:\Virtual_Environments\theeng\lib\site-packages\plotly\validators\layout\template\__init__.py:1(<module>)
        1    0.000    0.000    0.000    0.000 c:\Virtual_Environments\theeng\lib\site-packages\plotly\validators\contourcarpet\__init__.py:1(<module>)
        1    0.000    0.000    0.000    0.000 c:\Virtual_Environments\theeng\lib\site-packages\plotly\graph_objs\contourcarpet\__init__.py:1(<module>)
        1    0.000    0.000    0.000    0.000 c:\Virtual_Environments\theeng\lib\site-packages\plotly\graph_objs\contour\__init__.py:1(<module>)
        1    0.000    0.000    0.000    0.000 c:\Virtual_Environments\theeng\lib\site-packages\plotly\graph_objs\histogram2dcontour\__init__.py:1(<module>)
        1    0.000    0.000    0.000    0.000 c:\Virtual_Environments\theeng\lib\site-packages\plotly\graph_objs\histogram\marker\__init__.py:1(<module>)
        1    0.000    0.000    0.000    0.000 c:\Virtual_Environments\theeng\lib\site-packages\plotly\validators\parcoords\line\__init__.py:1(<module>)
        1    0.000    0.000    0.000    0.000 c:\Virtual_Environments\theeng\lib\site-packages\plotly\validators\parcoords\line\colorbar\__init__.py:1(<module>)
        1    0.000    0.000    0.000    0.000 c:\Virtual_Environments\theeng\lib\site-packages\plotly\validators\scattercarpet\__init__.py:1(<module>)
        1    0.000    0.000    0.000    0.000 c:\Virtual_Environments\theeng\lib\site-packages\plotly\validators\scatterpolargl\__init__.py:1(<module>)
        1    0.000    0.000    0.000    0.000 c:\Virtual_Environments\theeng\lib\site-packages\plotly\graph_objs\scatterternary\__init__.py:1(<module>)
        1    0.000    0.000    0.000    0.000 c:\Virtual_Environments\theeng\lib\site-packages\plotly\validators\surface\colorbar\__init__.py:1(<module>)
        1    0.000    0.000    0.000    0.000 c:\Virtual_Environments\theeng\lib\site-packages\plotly\validators\table\__init__.py:1(<module>)
        1    0.000    0.000    0.000    0.000 c:\Virtual_Environments\theeng\lib\site-packages\plotly\validators\table\header\__init__.py:1(<module>)
        1    0.000    0.000    0.000    0.000 c:\Virtual_Environments\theeng\lib\site-packages\plotly\validators\table\header\fill\__init__.py:1(<module>)
        1    0.000    0.000    0.000    0.000 c:\Virtual_Environments\theeng\lib\site-packages\plotly\validators\layout\scene\__init__.py:1(<module>)
        1    0.000    0.000    0.000    0.000 c:\Virtual_Environments\theeng\lib\site-packages\plotly\validators\layout\ternary\__init__.py:1(<module>)
        1    0.000    0.000    0.000    0.000 c:\Virtual_Environments\theeng\lib\site-packages\plotly\graph_objs\layout\yaxis\__init__.py:1(<module>)
        3    0.000    0.000    0.000    0.000 C:\Python38\lib\pathlib.py:1049(_init)
       13    0.000    0.000    0.000    0.000 c:\Virtual_Environments\theeng\lib\site-packages\pandas\core\missing.py:107(clean_fill_method)
        3    0.000    0.000    0.000    0.000 c:\Virtual_Environments\theeng\lib\site-packages\pandas\core\internals\blocks.py:544(copy)
        1    0.000    0.000    0.000    0.000 c:\Virtual_Environments\theeng\lib\site-packages\theeng\core\problem.py:8(__init__)
        1    0.000    0.000    0.000    0.000 c:\Virtual_Environments\theeng\lib\site-packages\joblib\_parallel_backends.py:498(configure)
        6    0.000    0.000    0.000    0.000 c:\Virtual_Environments\theeng\lib\site-packages\sklearn\preprocessing\_polynomial.py:132(__init__)
       18    0.000    0.000    0.000    0.000 c:\Virtual_Environments\theeng\lib\site-packages\sklearn\pipeline.py:312(_log_message)
        3    0.000    0.000    0.000    0.000 c:\Virtual_Environments\theeng\lib\site-packages\plotly\_subplots.py:1243(<listcomp>)
        5    0.000    0.000    0.000    0.000 c:\Virtual_Environments\theeng\lib\site-packages\_plotly_utils\utils.py:282(_get_int_type)
        1    0.000    0.000    0.001    0.001 c:\Virtual_Environments\theeng\lib\site-packages\plotly\files.py:1(<module>)
        1    0.000    0.000    0.000    0.000 c:\Virtual_Environments\theeng\lib\site-packages\plotly\graph_objs\layout\title\_font.py:5(Font)
        1    0.000    0.000    0.000    0.000 c:\Virtual_Environments\theeng\lib\site-packages\plotly\validators\barpolar\__init__.py:1(<module>)
        1    0.000    0.000    0.000    0.000 c:\Virtual_Environments\theeng\lib\site-packages\plotly\validators\bar\marker\__init__.py:1(<module>)
        1    0.000    0.000    0.000    0.000 c:\Virtual_Environments\theeng\lib\site-packages\plotly\graph_objs\layout\template\data\__init__.py:1(<module>)
        1    0.000    0.000    0.000    0.000 c:\Virtual_Environments\theeng\lib\site-packages\plotly\validators\carpet\aaxis\__init__.py:1(<module>)
        1    0.000    0.000    0.000    0.000 c:\Virtual_Environments\theeng\lib\site-packages\plotly\validators\carpet\baxis\__init__.py:1(<module>)
        1    0.000    0.000    0.000    0.000 c:\Virtual_Environments\theeng\lib\site-packages\plotly\validators\contour\colorbar\__init__.py:1(<module>)
        1    0.000    0.000    0.000    0.000 c:\Virtual_Environments\theeng\lib\site-packages\plotly\validators\parcoords\_name.py:5(__init__)
        1    0.000    0.000    0.000    0.000 c:\Virtual_Environments\theeng\lib\site-packages\plotly\validators\scatter3d\line\__init__.py:1(<module>)
        1    0.000    0.000    0.000    0.000 c:\Virtual_Environments\theeng\lib\site-packages\plotly\graph_objs\scatter3d\line\__init__.py:1(<module>)
        1    0.000    0.000    0.000    0.000 c:\Virtual_Environments\theeng\lib\site-packages\plotly\validators\scatter3d\marker\__init__.py:1(<module>)
        1    0.000    0.000    0.000    0.000 c:\Virtual_Environments\theeng\lib\site-packages\plotly\validators\scattermapbox\__init__.py:1(<module>)
        1    0.000    0.000    0.000    0.000 c:\Virtual_Environments\theeng\lib\site-packages\plotly\graph_objs\scatterpolargl\__init__.py:1(<module>)
        1    0.000    0.000    0.000    0.000 c:\Virtual_Environments\theeng\lib\site-packages\plotly\validators\scatterpolargl\marker\colorbar\__init__.py:1(<module>)
        1    0.000    0.000    0.000    0.000 c:\Virtual_Environments\theeng\lib\site-packages\plotly\graph_objs\scatterternary\marker\__init__.py:1(<module>)
        1    0.000    0.000    0.000    0.000 c:\Virtual_Environments\theeng\lib\site-packages\plotly\validators\scatterternary\marker\colorbar\__init__.py:1(<module>)
        1    0.000    0.000    0.000    0.000 c:\Virtual_Environments\theeng\lib\site-packages\plotly\validators\table\header\line\__init__.py:1(<module>)
        1    0.000    0.000    0.000    0.000 c:\Virtual_Environments\theeng\lib\site-packages\plotly\validators\heatmap\_coloraxis.py:5(__init__)
        1    0.000    0.000    0.000    0.000 c:\Virtual_Environments\theeng\lib\site-packages\plotly\validators\layout\hoverlabel\__init__.py:1(<module>)
        1    0.000    0.000    0.000    0.000 c:\Virtual_Environments\theeng\lib\site-packages\plotly\validators\layout\mapbox\__init__.py:1(<module>)
        1    0.000    0.000    0.000    0.000 c:\Virtual_Environments\theeng\lib\site-packages\plotly\validators\layout\polar\radialaxis\__init__.py:1(<module>)
        1    0.000    0.000    0.000    0.000 c:\Virtual_Environments\theeng\lib\site-packages\plotly\graph_objs\layout\shape\_line.py:5(Line)
        1    0.000    0.000    0.000    0.000 c:\Virtual_Environments\theeng\lib\site-packages\plotly\validators\layout\ternary\baxis\__init__.py:1(<module>)
        1    0.000    0.000    0.000    0.000 c:\Virtual_Environments\theeng\lib\site-packages\plotly\validators\layout\yaxis\title\__init__.py:1(<module>)
        4    0.000    0.000    0.000    0.000 C:\Python38\lib\ntpath.py:221(dirname)
        1    0.000    0.000    0.000    0.000 c:\Virtual_Environments\theeng\lib\site-packages\pandas\io\formats\format.py:725(_calc_max_cols_fitted)
        1    0.000    0.000    0.000    0.000 c:\Virtual_Environments\theeng\lib\site-packages\pymoo\core\sampling.py:16(do)
        3    0.000    0.000    0.000    0.000 {method 'fileno' of '_io.TextIOWrapper' objects}
        3    0.000    0.000    0.000    0.000 c:\Virtual_Environments\theeng\lib\site-packages\plotly\express\_core.py:2285(<listcomp>)
       29    0.000    0.000    0.000    0.000 c:\Virtual_Environments\theeng\lib\site-packages\plotly\basedatatypes.py:5712(<dictcomp>)
        1    0.000    0.000    0.007    0.007 c:\Virtual_Environments\theeng\lib\site-packages\pymoo\util\ref_dirs\__init__.py:1(<module>)
        1    0.000    0.000    0.000    0.000 c:\Virtual_Environments\theeng\lib\site-packages\plotly\graph_objs\barpolar\marker\__init__.py:1(<module>)
        1    0.000    0.000    0.000    0.000 c:\Virtual_Environments\theeng\lib\site-packages\plotly\validators\barpolar\marker\line\__init__.py:1(<module>)
        1    0.000    0.000    0.000    0.000 c:\Virtual_Environments\theeng\lib\site-packages\plotly\validators\layout\template\data\__init__.py:1(<module>)
        1    0.000    0.000    0.000    0.000 c:\Virtual_Environments\theeng\lib\site-packages\plotly\graph_objs\choropleth\__init__.py:1(<module>)
        1    0.000    0.000    0.000    0.000 c:\Virtual_Environments\theeng\lib\site-packages\plotly\validators\contourcarpet\colorbar\__init__.py:1(<module>)
        1    0.000    0.000    0.000    0.000 c:\Virtual_Environments\theeng\lib\site-packages\plotly\graph_objs\histogram2d\__init__.py:1(<module>)
        1    0.000    0.000    0.000    0.000 c:\Virtual_Environments\theeng\lib\site-packages\plotly\validators\histogram\marker\__init__.py:1(<module>)
        1    0.000    0.000    0.000    0.000 c:\Virtual_Environments\theeng\lib\site-packages\plotly\validators\mesh3d\colorbar\__init__.py:1(<module>)
        1    0.000    0.000    0.000    0.000 c:\Virtual_Environments\theeng\lib\site-packages\plotly\validators\layout\_waterfallgap.py:5(__init__)
        1    0.000    0.000    0.000    0.000 c:\Virtual_Environments\theeng\lib\site-packages\plotly\validators\scattermapbox\marker\colorbar\__init__.py:1(<module>)
        1    0.000    0.000    0.000    0.000 c:\Virtual_Environments\theeng\lib\site-packages\plotly\graph_objs\surface\__init__.py:1(<module>)
        1    0.000    0.000    0.000    0.000 c:\Virtual_Environments\theeng\lib\site-packages\plotly\graph_objs\table\header\__init__.py:1(<module>)
        1    0.000    0.000    0.000    0.000 c:\Virtual_Environments\theeng\lib\site-packages\plotly\validators\layout\font\__init__.py:1(<module>)
        1    0.000    0.000    0.000    0.000 c:\Virtual_Environments\theeng\lib\site-packages\plotly\validators\layout\polar\__init__.py:1(<module>)
        1    0.000    0.000    0.000    0.000 c:\Virtual_Environments\theeng\lib\site-packages\plotly\validators\layout\scene\yaxis\_showbackground.py:1(<module>)
        5    0.000    0.000    0.000    0.000 C:\Python38\lib\queue.py:212(_put)
        2    0.000    0.000    0.000    0.000 c:\Virtual_Environments\theeng\lib\site-packages\pandas\core\indexes\base.py:1963(rename)
        8    0.000    0.000    0.000    0.000 c:\Virtual_Environments\theeng\lib\site-packages\pandas\core\internals\base.py:163(array)
        4    0.000    0.000    0.000    0.000 c:\Virtual_Environments\theeng\lib\site-packages\pandas\io\formats\format.py:647(has_index_names)
        5    0.000    0.000    0.000    0.000 c:\Virtual_Environments\theeng\lib\site-packages\pandas\core\series.py:846(__array__)
        1    0.000    0.000    0.000    0.000 c:\Virtual_Environments\theeng\lib\site-packages\pymoo\core\initialization.py:35(<listcomp>)
        6    0.000    0.000    0.000    0.000 c:\Virtual_Environments\theeng\lib\site-packages\sklearn\utils\_param_validation.py:328(is_satisfied_by)
       27    0.000    0.000    0.000    0.000 {method 'setdefault' of 'dict' objects}
        3    0.000    0.000    0.000    0.000 c:\Virtual_Environments\theeng\lib\site-packages\plotly\_subplots.py:38(_get_initial_max_subplot_ids)
       12    0.000    0.000    0.000    0.000 c:\Virtual_Environments\theeng\lib\site-packages\plotly\basedatatypes.py:3069(<listcomp>)
       23    0.000    0.000    0.000    0.000 C:\Engineering Programs\FreeCAD 0.20\Mod\Fem\femsolver\calculix\write_constraint_fixed.py:45(get_after_write_meshdata_constraint)
       23    0.000    0.000    0.000    0.000 C:\Engineering Programs\FreeCAD 0.20\Mod\Fem\femsolver\calculix\write_constraint_fixed.py:49(get_before_write_constraint)
        1    0.000    0.000    0.000    0.000 C:\Engineering Programs\FreeCAD 0.20\Mod\Fem\femmesh\meshsetsgetter.py:24(<module>)
        1    0.000    0.000    0.000    0.000 c:\Virtual_Environments\theeng\lib\site-packages\plotly\graph_objs\scatter\_marker.py:1(<module>)
        1    0.000    0.000    0.000    0.000 c:\Virtual_Environments\theeng\lib\site-packages\plotly\graph_objs\layout\_font.py:5(Font)
        1    0.000    0.000    0.000    0.000 c:\Virtual_Environments\theeng\lib\site-packages\plotly\validators\layout\legend\title\__init__.py:1(<module>)
        1    0.000    0.000    0.000    0.000 c:\Virtual_Environments\theeng\lib\site-packages\plotly\validators\bar\error_y\__init__.py:1(<module>)
        1    0.000    0.000    0.000    0.000 c:\Virtual_Environments\theeng\lib\site-packages\plotly\validators\bar\marker\line\_width.py:5(__init__)
        1    0.000    0.000    0.000    0.000 c:\Virtual_Environments\theeng\lib\site-packages\plotly\validators\choropleth\__init__.py:1(<module>)
        1    0.000    0.000    0.000    0.000 c:\Virtual_Environments\theeng\lib\site-packages\plotly\graph_objs\parcoords\line\__init__.py:1(<module>)
        1    0.000    0.000    0.000    0.000 c:\Virtual_Environments\theeng\lib\site-packages\plotly\validators\scattercarpet\marker\__init__.py:1(<module>)
        1    0.000    0.000    0.000    0.000 c:\Virtual_Environments\theeng\lib\site-packages\plotly\graph_objs\scattercarpet\marker\__init__.py:1(<module>)
        1    0.000    0.000    0.000    0.000 c:\Virtual_Environments\theeng\lib\site-packages\plotly\validators\scattercarpet\marker\colorbar\__init__.py:1(<module>)
        1    0.000    0.000    0.000    0.000 c:\Virtual_Environments\theeng\lib\site-packages\plotly\graph_objs\scattergl\marker\__init__.py:1(<module>)
        1    0.000    0.000    0.000    0.000 c:\Virtual_Environments\theeng\lib\site-packages\plotly\graph_objs\scattermapbox\marker\__init__.py:1(<module>)
        1    0.000    0.000    0.000    0.000 c:\Virtual_Environments\theeng\lib\site-packages\plotly\graph_objs\scatterpolargl\marker\__init__.py:1(<module>)
        1    0.000    0.000    0.000    0.000 c:\Virtual_Environments\theeng\lib\site-packages\plotly\validators\scatterpolar\marker\__init__.py:1(<module>)
        1    0.000    0.000    0.000    0.000 c:\Virtual_Environments\theeng\lib\site-packages\plotly\validators\scatter\fillpattern\_size.py:5(__init__)
        1    0.000    0.000    0.000    0.000 c:\Virtual_Environments\theeng\lib\site-packages\plotly\validators\table\cells\fill\__init__.py:1(<module>)
        1    0.000    0.000    0.000    0.000 c:\Virtual_Environments\theeng\lib\site-packages\plotly\validators\table\cells\line\__init__.py:1(<module>)
        1    0.000    0.000    0.000    0.000 c:\Virtual_Environments\theeng\lib\site-packages\plotly\validators\layout\coloraxis\colorbar\__init__.py:1(<module>)
        1    0.000    0.000    0.000    0.000 c:\Virtual_Environments\theeng\lib\site-packages\plotly\validators\layout\shape\__init__.py:1(<module>)
        1    0.000    0.000    0.000    0.000 c:\Virtual_Environments\theeng\lib\site-packages\plotly\validators\layout\coloraxis\_cmid.py:5(__init__)
       19    0.000    0.000    0.000    0.000 c:\Virtual_Environments\theeng\lib\site-packages\numpy\core\numeric.py:2195(_allclose_dispatcher)
        5    0.000    0.000    0.000    0.000 c:\Virtual_Environments\theeng\lib\site-packages\sklearn\utils\parallel.py:12(_with_config)
        7    0.000    0.000    0.000    0.000 c:\Virtual_Environments\theeng\lib\site-packages\plotly\graph_objs\_layout.py:4137(xaxis)
        1    0.000    0.000    0.019    0.019 c:\Virtual_Environments\theeng\lib\site-packages\pandas\io\formats\string.py:29(to_string)
        1    0.000    0.000    0.000    0.000 c:\Virtual_Environments\theeng\lib\site-packages\plotly\validators\layout\xaxis\_domain.py:5(__init__)
        1    0.000    0.000    0.000    0.000 c:\Virtual_Environments\theeng\lib\site-packages\plotly\graph_objs\layout\title\__init__.py:1(<module>)
        1    0.000    0.000    0.000    0.000 c:\Virtual_Environments\theeng\lib\site-packages\plotly\validators\heatmap\_x.py:5(__init__)
        1    0.000    0.000    0.000    0.000 c:\Virtual_Environments\theeng\lib\site-packages\plotly\validators\bar\marker\pattern\_solidity.py:5(__init__)
        1    0.000    0.000    0.000    0.000 c:\Virtual_Environments\theeng\lib\site-packages\plotly\validators\choropleth\colorbar\__init__.py:1(<module>)
        1    0.000    0.000    0.000    0.000 c:\Virtual_Environments\theeng\lib\site-packages\plotly\validators\surface\_colorscale.py:5(__init__)
        1    0.000    0.000    0.000    0.000 c:\Virtual_Environments\theeng\lib\site-packages\plotly\graph_objs\layout\shape\__init__.py:1(<module>)
        1    0.000    0.000    0.000    0.000 c:\Virtual_Environments\theeng\lib\site-packages\plotly\validators\heatmap\_hovertemplate.py:5(__init__)
        1    0.000    0.000    0.000    0.000 c:\Virtual_Environments\theeng\lib\site-packages\plotly\validators\layout\yaxis\_autorange.py:5(__init__)
        1    0.000    0.000    0.000    0.000 C:\Python38\lib\random.py:721(getrandbits)
        2    0.000    0.000    0.000    0.000 C:\Python38\lib\linecache.py:15(getline)
        1    0.000    0.000    0.000    0.000 c:\Virtual_Environments\theeng\lib\site-packages\pandas\core\series.py:486(_init_dict)
        3    0.000    0.000    0.000    0.000 c:\Virtual_Environments\theeng\lib\site-packages\pandas\core\internals\managers.py:1585(operate_blockwise)
        6    0.000    0.000    0.000    0.000 c:\Virtual_Environments\theeng\lib\site-packages\sklearn\linear_model\_base.py:605(__init__)
        6    0.000    0.000    0.000    0.000 c:\Virtual_Environments\theeng\lib\site-packages\sklearn\pipeline.py:145(__init__)
        1    0.000    0.000    0.000    0.000 c:\Virtual_Environments\theeng\lib\site-packages\plotly\express\_core.py:1138(<listcomp>)
        7    0.000    0.000    0.000    0.000 c:\Virtual_Environments\theeng\lib\site-packages\plotly\basedatatypes.py:944(data)
        1    0.000    0.000    0.000    0.000 C:\Engineering Programs\FreeCAD 0.20\Mod\Fem\feminout\importCcxFrdResults.py:26(<module>)
        1    0.000    0.000    0.000    0.000 c:\Virtual_Environments\theeng\lib\site-packages\plotly\validators\layout\_boxgroupgap.py:5(__init__)
        1    0.000    0.000    0.000    0.000 c:\Virtual_Environments\theeng\lib\site-packages\plotly\validators\layout\_iciclecolorway.py:1(<module>)
        1    0.000    0.000    0.000    0.000 c:\Virtual_Environments\theeng\lib\site-packages\plotly\validators\layout\_autotypenumbers.py:5(__init__)
        1    0.000    0.000    0.000    0.000 c:\Virtual_Environments\theeng\lib\site-packages\plotly\validators\layout\_spikedistance.py:5(__init__)
        1    0.000    0.000    0.000    0.000 c:\Virtual_Environments\theeng\lib\site-packages\plotly\validators\bar\error_x\__init__.py:1(<module>)
        1    0.000    0.000    0.004    0.004 c:\Virtual_Environments\theeng\lib\site-packages\plotly\validators\layout\_metasrc.py:5(__init__)
        1    0.000    0.000    0.000    0.000 c:\Virtual_Environments\theeng\lib\site-packages\plotly\validators\scatterternary\marker\__init__.py:1(<module>)
        1    0.000    0.000    0.000    0.000 c:\Virtual_Environments\theeng\lib\site-packages\plotly\validators\heatmap\_name.py:5(__init__)
        1    0.000    0.000    0.000    0.000 c:\Virtual_Environments\theeng\lib\site-packages\plotly\graph_objs\layout\ternary\__init__.py:1(<module>)
       13    0.000    0.000    0.000    0.000 c:\Virtual_Environments\theeng\lib\site-packages\numpy\core\numeric.py:1473(<listcomp>)
        5    0.000    0.000    0.000    0.000 c:\Virtual_Environments\theeng\lib\site-packages\pandas\core\nanops.py:86(<genexpr>)
        1    0.000    0.000    0.001    0.001 c:\Virtual_Environments\theeng\lib\site-packages\pandas\core\frame.py:9411(apply)
        2    0.000    0.000    0.000    0.000 c:\Virtual_Environments\theeng\lib\site-packages\pandas\io\formats\format.py:978(<listcomp>)
        1    0.000    0.000    0.000    0.000 c:\Virtual_Environments\theeng\lib\site-packages\scipy\stats\_qmc.py:1197(__init__)
        3    0.000    0.000    0.000    0.000 c:\Virtual_Environments\theeng\lib\site-packages\sklearn\utils\validation.py:442(<listcomp>)
        6    0.000    0.000    0.000    0.000 c:\Virtual_Environments\theeng\lib\site-packages\plotly\basedatatypes.py:1975(_validate_rows_cols)
        1    0.000    0.000    0.001    0.001 c:\Virtual_Environments\theeng\lib\site-packages\plotly\graph_objs\_layout.py:1(<module>)
        1    0.000    0.000    0.000    0.000 c:\Virtual_Environments\theeng\lib\site-packages\pymoo\util\nds\efficient_non_dominated_sort.py:1(<module>)
        1    0.000    0.000    0.000    0.000 c:\Virtual_Environments\theeng\lib\site-packages\plotly\tools.py:583(FigureFactory)
        1    0.000    0.000    0.000    0.000 c:\Virtual_Environments\theeng\lib\site-packages\pymoo\termination\max_time.py:1(<module>)
        1    0.000    0.000    0.000    0.000 c:\Virtual_Environments\theeng\lib\site-packages\plotly\validators\layout\_boxgap.py:5(__init__)
        1    0.000    0.000    0.000    0.000 c:\Virtual_Environments\theeng\lib\site-packages\plotly\validators\layout\legend\_title.py:5(__init__)
        1    0.000    0.000    0.000    0.000 c:\Virtual_Environments\theeng\lib\site-packages\plotly\validators\barpolar\marker\pattern\_solidity.py:5(__init__)
        1    0.000    0.000    0.000    0.000 c:\Virtual_Environments\theeng\lib\site-packages\plotly\validators\layout\margin\_t.py:5(__init__)
        1    0.000    0.000    0.000    0.000 c:\Virtual_Environments\theeng\lib\site-packages\plotly\validators\layout\annotation\_arrowhead.py:5(__init__)
        1    0.000    0.000    0.000    0.000 c:\Virtual_Environments\theeng\lib\site-packages\plotly\validators\scatter\fillpattern\_fillmode.py:5(__init__)
        1    0.000    0.000    0.000    0.000 c:\Virtual_Environments\theeng\lib\site-packages\plotly\validators\layout\scene\xaxis\_ticks.py:5(__init__)
        1    0.000    0.000    0.000    0.000 c:\Virtual_Environments\theeng\lib\site-packages\plotly\validators\layout\scene\xaxis\_zerolinecolor.py:5(__init__)
        1    0.000    0.000    0.000    0.000 c:\Virtual_Environments\theeng\lib\site-packages\plotly\validators\layout\ternary\aaxis\_ticks.py:5(__init__)
        1    0.000    0.000    0.000    0.000 c:\Virtual_Environments\theeng\lib\site-packages\plotly\validators\layout\xaxis\title\__init__.py:1(<module>)
        1    0.000    0.000    0.000    0.000 c:\Virtual_Environments\theeng\lib\site-packages\plotly\validators\parcoords\domain\_y.py:5(__init__)
        1    0.000    0.000    0.000    0.000 C:\Python38\lib\ntpath.py:524(abspath)
        4    0.000    0.000    0.000    0.000 c:\Virtual_Environments\theeng\lib\site-packages\pandas\core\computation\expressions.py:225(evaluate)
        1    0.000    0.000    0.000    0.000 c:\Virtual_Environments\theeng\lib\site-packages\pandas\io\formats\console.py:54(in_interactive_session)
        1    0.000    0.000    0.000    0.000 c:\Virtual_Environments\theeng\lib\site-packages\pandas\core\frame.py:1780(to_numpy)
       15    0.000    0.000    0.000    0.000 c:\Virtual_Environments\theeng\lib\site-packages\plotly\io\_templates.py:139(default)
        5    0.000    0.000    0.005    0.001 c:\Virtual_Environments\theeng\lib\site-packages\plotly\graph_objs\_scatter.py:1044(marker)
        1    0.000    0.000    0.001    0.001 C:\Engineering Programs\FreeCAD 0.20\Mod\Fem\femsolver\writerbase.py:24(<module>)
        1    0.000    0.000    0.000    0.000 c:\Virtual_Environments\theeng\lib\site-packages\pymoo\util\nds\tree_based_non_dominated_sort.py:1(<module>)
        1    0.000    0.000    0.000    0.000 c:\Virtual_Environments\theeng\lib\site-packages\plotly\validators\layout\_waterfallgroupgap.py:5(__init__)
        1    0.000    0.000    0.000    0.000 c:\Virtual_Environments\theeng\lib\site-packages\plotly\validators\layout\_bargap.py:5(__init__)
        1    0.000    0.000    0.000    0.000 c:\Virtual_Environments\theeng\lib\site-packages\plotly\validators\layout\_bargroupgap.py:5(__init__)
        1    0.000    0.000    0.000    0.000 c:\Virtual_Environments\theeng\lib\site-packages\plotly\validators\layout\_funnelgroupgap.py:5(__init__)
        1    0.000    0.000    0.000    0.000 c:\Virtual_Environments\theeng\lib\site-packages\plotly\validators\barpolar\marker\pattern\_size.py:5(__init__)
        1    0.000    0.000    0.000    0.000 c:\Virtual_Environments\theeng\lib\site-packages\plotly\validators\contour\_colorscale.py:5(__init__)
        1    0.000    0.000    0.000    0.000 c:\Virtual_Environments\theeng\lib\site-packages\plotly\validators\parcoords\_domain.py:5(__init__)
        1    0.000    0.000    0.000    0.000 c:\Virtual_Environments\theeng\lib\site-packages\plotly\validators\layout\scene\yaxis\_gridwidth.py:5(__init__)
        1    0.000    0.000    0.000    0.000 c:\Virtual_Environments\theeng\lib\site-packages\plotly\validators\layout\title\_x.py:5(__init__)
        1    0.000    0.000    0.000    0.000 c:\Virtual_Environments\theeng\lib\site-packages\plotly\validators\heatmap\_xaxis.py:5(__init__)
       20    0.000    0.000    0.000    0.000 c:\Virtual_Environments\theeng\lib\site-packages\numpy\linalg\linalg.py:302(_solve_dispatcher)
        1    0.000    0.000    0.000    0.000 c:\Virtual_Environments\theeng\lib\site-packages\pandas\core\frame.py:10815(func)
        2    0.000    0.000    0.000    0.000 c:\Virtual_Environments\theeng\lib\site-packages\pandas\io\formats\format.py:793(truncate)
        1    0.000    0.000    0.000    0.000 c:\Virtual_Environments\theeng\lib\site-packages\pymoo\algorithms\moo\nsga3.py:270(__init__)
        1    0.000    0.000    0.000    0.000 c:\Virtual_Environments\theeng\lib\site-packages\theeng\core\problem.py:26(setObjectives)
       13    0.000    0.000    0.000    0.000 {method 'item' of 'numpy.ndarray' objects}
       10    0.000    0.000    0.000    0.000 {method 'index' of 'list' objects}
        1    0.000    0.000    0.000    0.000 C:\Engineering Programs\FreeCAD 0.20\Mod\Fem\femobjects\base_fempythonobject.py:25(<module>)
        1    0.000    0.000    0.006    0.006 C:\Engineering Programs\FreeCAD 0.20\Mod\Fem\femsolver\calculix\write_constraint_fluidsection.py:24(<module>)
        1    0.000    0.000    0.000    0.000 c:\Virtual_Environments\theeng\lib\site-packages\plotly\validators\layout\_scattergap.py:5(__init__)
        1    0.000    0.000    0.000    0.000 c:\Virtual_Environments\theeng\lib\site-packages\plotly\validators\layout\yaxis\title\_text.py:5(__init__)
        1    0.000    0.000    0.000    0.000 c:\Virtual_Environments\theeng\lib\site-packages\plotly\validators\scatter\_x.py:5(__init__)
        1    0.000    0.000    0.000    0.000 c:\Virtual_Environments\theeng\lib\site-packages\plotly\validators\contourcarpet\colorbar\_ticks.py:5(__init__)
        1    0.000    0.000    0.000    0.000 c:\Virtual_Environments\theeng\lib\site-packages\plotly\validators\heatmap\_colorscale.py:5(__init__)
        1    0.000    0.000    0.000    0.000 c:\Virtual_Environments\theeng\lib\site-packages\plotly\validators\layout\_width.py:5(__init__)
        1    0.000    0.000    0.000    0.000 c:\Virtual_Environments\theeng\lib\site-packages\plotly\validators\heatmap\_y.py:5(__init__)
        3    0.000    0.000    0.000    0.000 C:\Python38\lib\codecs.py:186(__init__)
       27    0.000    0.000    0.000    0.000 C:\Python38\lib\_collections_abc.py:392(__subclasshook__)
       21    0.000    0.000    0.000    0.000 c:\Virtual_Environments\theeng\lib\site-packages\numpy\core\fromnumeric.py:3148(_ndim_dispatcher)
        1    0.000    0.000    0.000    0.000 c:\Virtual_Environments\theeng\lib\site-packages\pandas\core\nanops.py:469(newfunc)
        1    0.000    0.000    0.001    0.001 c:\Virtual_Environments\theeng\lib\site-packages\pandas\core\base.py:989(unique)
        2    0.000    0.000    0.000    0.000 c:\Virtual_Environments\theeng\lib\site-packages\pandas\core\indexes\base.py:7452(<genexpr>)
        2    0.000    0.000    0.000    0.000 c:\Virtual_Environments\theeng\lib\site-packages\pandas\core\groupby\groupby.py:738(_get_index)
        1    0.000    0.000    0.000    0.000 c:\Virtual_Environments\theeng\lib\site-packages\pandas\core\internals\concat.py:635(_is_uniform_join_units)
        1    0.000    0.000    0.000    0.000 c:\Virtual_Environments\theeng\lib\site-packages\theeng\algorithms\rankers.py:82(_weightening)
        3    0.000    0.000    0.000    0.000 c:\Virtual_Environments\theeng\lib\site-packages\plotly\io\_templates.py:60(__contains__)
        1    0.000    0.000    0.000    0.000 c:\Virtual_Environments\theeng\lib\site-packages\plotly\validators\layout\_height.py:5(__init__)
        1    0.000    0.000    0.000    0.000 c:\Virtual_Environments\theeng\lib\site-packages\plotly\validators\layout\_violingroupgap.py:5(__init__)
        1    0.000    0.000    0.000    0.000 c:\Virtual_Environments\theeng\lib\site-packages\plotly\validators\layout\_clickmode.py:5(__init__)
        1    0.000    0.000    0.000    0.000 c:\Virtual_Environments\theeng\lib\site-packages\plotly\validators\layout\_funnelgap.py:5(__init__)
        1    0.000    0.000    0.000    0.000 c:\Virtual_Environments\theeng\lib\site-packages\plotly\validators\barpolar\marker\line\_color.py:5(__init__)
        1    0.000    0.000    0.000    0.000 c:\Virtual_Environments\theeng\lib\site-packages\plotly\validators\histogram2dcontour\colorbar\_ticks.py:5(__init__)
        1    0.000    0.000    0.000    0.000 c:\Virtual_Environments\theeng\lib\site-packages\plotly\validators\layout\xaxis\_constrain.py:5(__init__)
        1    0.000    0.000    0.000    0.000 c:\Virtual_Environments\theeng\lib\site-packages\plotly\validators\layout\coloraxis\_colorscale.py:5(__init__)
        1    0.000    0.000    0.000    0.000 c:\Virtual_Environments\theeng\lib\site-packages\plotly\validators\layout\coloraxis\_cmin.py:5(__init__)
        2    0.000    0.000    0.000    0.000 C:\Python38\lib\warnings.py:96(_showwarnmsg)
       24    0.000    0.000    0.000    0.000 c:\Virtual_Environments\theeng\lib\site-packages\numpy\core\multiarray.py:84(empty_like)
        1    0.000    0.000    0.000    0.000 C:\Python38\lib\typing.py:868(__new__)
        4    0.000    0.000    0.000    0.000 c:\Virtual_Environments\theeng\lib\site-packages\pandas\core\common.py:192(all_none)
        1    0.000    0.000    0.000    0.000 c:\Virtual_Environments\theeng\lib\site-packages\pandas\core\accessor.py:178(__get__)
        4    0.000    0.000    0.000    0.000 c:\Virtual_Environments\theeng\lib\site-packages\pandas\core\indexes\base.py:931(__array__)
        3    0.000    0.000    0.001    0.000 c:\Virtual_Environments\theeng\lib\site-packages\pandas\core\generic.py:11945(min)
        2    0.000    0.000    0.000    0.000 c:\Virtual_Environments\theeng\lib\site-packages\pandas\core\internals\blocks.py:165(_can_hold_na)
        1    0.000    0.000    0.000    0.000 c:\Virtual_Environments\theeng\lib\site-packages\pymoo\core\algorithm.py:168(_initialize)
       13    0.000    0.000    0.000    0.000 {method 'strip' of 'str' objects}
        3    0.000    0.000    0.000    0.000 c:\Virtual_Environments\theeng\lib\site-packages\plotly\_subplots.py:651(<listcomp>)
        1    0.000    0.000    0.000    0.000 C:\Engineering Programs\FreeCAD 0.20\Mod\Fem\femobjects\result_mechanical.py:25(<module>)
        1    0.000    0.000    0.000    0.000 C:\Engineering Programs\FreeCAD 0.20\Mod\Fem\femtools\checksanalysis.py:25(<module>)
        3    0.000    0.000    0.006    0.002 c:\Virtual_Environments\theeng\lib\site-packages\plotly\graph_objs\_layout.py:3541(template)
        1    0.000    0.000    0.000    0.000 c:\Virtual_Environments\theeng\lib\site-packages\plotly\validators\layout\_dragmode.py:5(__init__)
        1    0.000    0.000    0.000    0.000 c:\Virtual_Environments\theeng\lib\site-packages\plotly\validators\layout\_uirevision.py:5(__init__)
        1    0.000    0.000    0.000    0.000 c:\Virtual_Environments\theeng\lib\site-packages\plotly\validators\layout\_updatemenus.py:5(__init__)
        1    0.000    0.000    0.000    0.000 c:\Virtual_Environments\theeng\lib\site-packages\plotly\validators\scatter\_hovertemplate.py:5(__init__)
        1    0.000    0.000    0.000    0.000 c:\Virtual_Environments\theeng\lib\site-packages\plotly\validators\heatmapgl\_colorscale.py:5(__init__)
        1    0.000    0.000    0.000    0.000 c:\Virtual_Environments\theeng\lib\site-packages\plotly\validators\layout\_funnelmode.py:5(__init__)
        1    0.000    0.000    0.000    0.000 c:\Virtual_Environments\theeng\lib\site-packages\plotly\validators\layout\_hoverdistance.py:5(__init__)
        1    0.000    0.000    0.000    0.000 c:\Virtual_Environments\theeng\lib\site-packages\plotly\validators\scatterpolargl\marker\colorbar\_outlinewidth.py:5(__init__)
        1    0.000    0.000    0.000    0.000 c:\Virtual_Environments\theeng\lib\site-packages\plotly\validators\parcoords\_dimensions.py:5(__init__)
        1    0.000    0.000    0.000    0.000 c:\Virtual_Environments\theeng\lib\site-packages\plotly\validators\scatterternary\marker\colorbar\_outlinewidth.py:5(__init__)
        1    0.000    0.000    0.000    0.000 c:\Virtual_Environments\theeng\lib\site-packages\plotly\validators\scatterternary\marker\colorbar\_ticks.py:5(__init__)
        1    0.000    0.000    0.000    0.000 c:\Virtual_Environments\theeng\lib\site-packages\plotly\validators\surface\colorbar\_outlinewidth.py:5(__init__)
        1    0.000    0.000    0.000    0.000 c:\Virtual_Environments\theeng\lib\site-packages\plotly\validators\layout\xaxis\_scaleanchor.py:5(__init__)
       23    0.000    0.000    0.000    0.000 C:\Python38\lib\contextlib.py:356(__enter__)
        3    0.000    0.000    0.000    0.000 <__array_function__ internals>:177(diff)
        1    0.000    0.000    0.000    0.000 c:\Virtual_Environments\theeng\lib\site-packages\pandas\core\series.py:3194(_construct_result)
       17    0.000    0.000    0.000    0.000 {method 'values' of 'collections.OrderedDict' objects}
        1    0.000    0.000    0.025    0.025 c:\Virtual_Environments\theeng\lib\site-packages\sklearn\utils\parallel.py:40(__call__)
        1    0.000    0.000    0.000    0.000 c:\Virtual_Environments\theeng\lib\site-packages\plotly\validators\layout\annotation\_arrowwidth.py:5(__init__)
        2    0.000    0.000    0.000    0.000 c:\Virtual_Environments\theeng\lib\site-packages\plotly\express\_core.py:1917(<listcomp>)
        1    0.000    0.000    0.000    0.000 c:\Virtual_Environments\theeng\lib\site-packages\plotly\_subplots.py:1017(_init_subplot_domain)
        1    0.000    0.000    0.001    0.001 c:\Virtual_Environments\theeng\lib\site-packages\plotly\graph_objs\_figure.py:21615(select_xaxes)
        1    0.000    0.000    0.000    0.000 C:\Engineering Programs\FreeCAD 0.20\Mod\Fem\femsolver\task.py:39(Task)
        1    0.000    0.000    0.000    0.000 c:\Virtual_Environments\theeng\lib\site-packages\plotly\validators\layout\yaxis\_domain.py:5(__init__)
        1    0.000    0.000    0.000    0.000 c:\Virtual_Environments\theeng\lib\site-packages\plotly\validators\layout\_annotations.py:5(__init__)
        1    0.000    0.000    0.000    0.000 c:\Virtual_Environments\theeng\lib\site-packages\plotly\validators\layout\_violingap.py:5(__init__)
        1    0.000    0.000    0.000    0.000 c:\Virtual_Environments\theeng\lib\site-packages\plotly\validators\layout\_minreducedwidth.py:5(__init__)
        1    0.000    0.000    0.000    0.000 c:\Virtual_Environments\theeng\lib\site-packages\plotly\graph_objs\layout\_activeshape.py:5(Activeshape)
        1    0.000    0.000    0.000    0.000 c:\Virtual_Environments\theeng\lib\site-packages\plotly\validators\layout\_iciclecolorway.py:5(__init__)
        1    0.000    0.000    0.000    0.000 c:\Virtual_Environments\theeng\lib\site-packages\plotly\graph_objs\layout\_activeselection.py:5(Activeselection)
        1    0.000    0.000    0.000    0.000 c:\Virtual_Environments\theeng\lib\site-packages\plotly\validators\bar\marker\line\_color.py:5(__init__)
        1    0.000    0.000    0.000    0.000 c:\Virtual_Environments\theeng\lib\site-packages\plotly\validators\scatter\_legendgroup.py:5(__init__)
        1    0.000    0.000    0.000    0.000 c:\Virtual_Environments\theeng\lib\site-packages\plotly\validators\choropleth\colorbar\_ticks.py:5(__init__)
        1    0.000    0.000    0.000    0.000 c:\Virtual_Environments\theeng\lib\site-packages\plotly\validators\scatter\_name.py:5(__init__)
        1    0.000    0.000    0.000    0.000 c:\Virtual_Environments\theeng\lib\site-packages\plotly\validators\heatmap\colorbar\_outlinewidth.py:5(__init__)
        1    0.000    0.000    0.000    0.000 c:\Virtual_Environments\theeng\lib\site-packages\plotly\validators\histogram2d\colorbar\_ticks.py:5(__init__)
        1    0.000    0.000    0.000    0.000 c:\Virtual_Environments\theeng\lib\site-packages\plotly\validators\histogram\marker\pattern\_fillmode.py:5(__init__)
        1    0.000    0.000    0.000    0.000 c:\Virtual_Environments\theeng\lib\site-packages\plotly\validators\layout\_plot_bgcolor.py:5(__init__)
        1    0.000    0.000    0.000    0.000 c:\Virtual_Environments\theeng\lib\site-packages\plotly\validators\layout\_barnorm.py:5(__init__)
        1    0.000    0.000    0.000    0.000 c:\Virtual_Environments\theeng\lib\site-packages\plotly\validators\layout\_transition.py:5(__init__)
        1    0.000    0.000    0.000    0.000 c:\Virtual_Environments\theeng\lib\site-packages\plotly\validators\scatter3d\marker\colorbar\_outlinewidth.py:5(__init__)
        1    0.000    0.000    0.000    0.000 c:\Virtual_Environments\theeng\lib\site-packages\plotly\validators\scattercarpet\marker\colorbar\_outlinewidth.py:5(__init__)
        1    0.000    0.000    0.000    0.000 c:\Virtual_Environments\theeng\lib\site-packages\plotly\validators\layout\template\data\_scatterternary.py:5(__init__)
        1    0.000    0.000    0.000    0.000 c:\Virtual_Environments\theeng\lib\site-packages\plotly\validators\surface\colorbar\_ticks.py:5(__init__)
        1    0.000    0.000    0.000    0.000 c:\Virtual_Environments\theeng\lib\site-packages\plotly\validators\layout\polar\radialaxis\_ticks.py:5(__init__)
        1    0.000    0.000    0.000    0.000 c:\Virtual_Environments\theeng\lib\site-packages\plotly\validators\layout\scene\yaxis\_ticks.py:5(__init__)
        1    0.000    0.000    0.000    0.000 c:\Virtual_Environments\theeng\lib\site-packages\plotly\validators\parcoords\dimension\_values.py:5(__init__)
        1    0.000    0.000    0.000    0.000 c:\Virtual_Environments\theeng\lib\site-packages\plotly\validators\heatmap\_yaxis.py:5(__init__)
        1    0.000    0.000    0.000    0.000 c:\Virtual_Environments\theeng\lib\site-packages\plotly\validators\layout\yaxis\_constrain.py:5(__init__)
        1    0.000    0.000    0.000    0.000 C:\Python38\lib\typing.py:187(_subs_tvars)
        2    0.000    0.000    0.000    0.000 c:\Virtual_Environments\theeng\lib\site-packages\pandas\core\array_algos\take.py:350(wrapper)
        2    0.000    0.000    0.000    0.000 c:\Virtual_Environments\theeng\lib\site-packages\pandas\core\indexes\api.py:78(get_objs_combined_axis)
       20    0.000    0.000    0.000    0.000 c:\Virtual_Environments\theeng\lib\site-packages\pymoo\core\callback.py:11(notify)
        1    0.000    0.000    0.000    0.000 c:\Virtual_Environments\theeng\lib\site-packages\theeng\core\problem.py:301(_checkBounds)
        6    0.000    0.000    0.000    0.000 {method 'lstrip' of 'str' objects}
        1    0.000    0.000    0.000    0.000 c:\Virtual_Environments\theeng\lib\site-packages\plotly\validators\layout\_waterfallmode.py:5(__init__)
        1    0.000    0.000    0.000    0.000 c:\Virtual_Environments\theeng\lib\site-packages\plotly\validators\layout\_boxmode.py:5(__init__)
        1    0.000    0.000    0.000    0.000 c:\Virtual_Environments\theeng\lib\site-packages\plotly\validators\layout\_separators.py:5(__init__)
        1    0.000    0.000    0.000    0.000 c:\Virtual_Environments\theeng\lib\site-packages\plotly\graph_objs\barpolar\_marker.py:1(<module>)
        1    0.000    0.000    0.000    0.000 c:\Virtual_Environments\theeng\lib\site-packages\plotly\validators\barpolar\marker\line\_width.py:5(__init__)
        1    0.000    0.000    0.000    0.000 c:\Virtual_Environments\theeng\lib\site-packages\plotly\validators\bar\marker\pattern\_size.py:5(__init__)
        1    0.000    0.000    0.000    0.000 c:\Virtual_Environments\theeng\lib\site-packages\plotly\validators\scatter\_orientation.py:5(__init__)
        1    0.000    0.000    0.000    0.000 c:\Virtual_Environments\theeng\lib\site-packages\plotly\validators\layout\template\_layout.py:5(__init__)
        1    0.000    0.000    0.000    0.000 c:\Virtual_Environments\theeng\lib\site-packages\plotly\validators\contourcarpet\_colorbar.py:5(__init__)
        1    0.000    0.000    0.000    0.000 c:\Virtual_Environments\theeng\lib\site-packages\plotly\validators\heatmap\colorbar\_ticks.py:5(__init__)
        1    0.000    0.000    0.000    0.000 c:\Virtual_Environments\theeng\lib\site-packages\plotly\validators\histogram2d\colorbar\_outlinewidth.py:5(__init__)
        1    0.000    0.000    0.000    0.000 c:\Virtual_Environments\theeng\lib\site-packages\plotly\validators\histogram2d\_colorscale.py:5(__init__)
        1    0.000    0.000    0.000    0.000 c:\Virtual_Environments\theeng\lib\site-packages\plotly\validators\histogram\marker\pattern\_size.py:5(__init__)
        1    0.000    0.000    0.000    0.000 c:\Virtual_Environments\theeng\lib\site-packages\plotly\validators\histogram\marker\pattern\_solidity.py:5(__init__)
        1    0.000    0.000    0.000    0.000 c:\Virtual_Environments\theeng\lib\site-packages\plotly\validators\layout\_calendar.py:5(__init__)
        1    0.000    0.000    0.000    0.000 c:\Virtual_Environments\theeng\lib\site-packages\plotly\validators\mesh3d\colorbar\_ticks.py:5(__init__)
        1    0.000    0.000    0.000    0.000 c:\Virtual_Environments\theeng\lib\site-packages\plotly\validators\scattercarpet\marker\colorbar\_ticks.py:5(__init__)
        1    0.000    0.000    0.000    0.000 c:\Virtual_Environments\theeng\lib\site-packages\plotly\validators\scattergeo\marker\colorbar\_ticks.py:5(__init__)
        1    0.000    0.000    0.000    0.000 c:\Virtual_Environments\theeng\lib\site-packages\plotly\validators\scattermapbox\marker\colorbar\_ticks.py:5(__init__)
        1    0.000    0.000    0.000    0.000 c:\Virtual_Environments\theeng\lib\site-packages\plotly\validators\scatterpolargl\marker\colorbar\_ticks.py:5(__init__)
        1    0.000    0.000    0.000    0.000 c:\Virtual_Environments\theeng\lib\site-packages\plotly\validators\scatterpolar\marker\colorbar\_outlinewidth.py:5(__init__)
        1    0.000    0.000    0.000    0.000 c:\Virtual_Environments\theeng\lib\site-packages\plotly\validators\layout\coloraxis\colorbar\_ticks.py:5(__init__)
        1    0.000    0.000    0.000    0.000 c:\Virtual_Environments\theeng\lib\site-packages\plotly\validators\layout\scene\xaxis\_gridwidth.py:5(__init__)
        1    0.000    0.000    0.000    0.000 c:\Virtual_Environments\theeng\lib\site-packages\plotly\validators\layout\scene\zaxis\_gridwidth.py:5(__init__)
        1    0.000    0.000    0.000    0.000 c:\Virtual_Environments\theeng\lib\site-packages\plotly\validators\layout\scene\zaxis\_ticks.py:5(__init__)
        1    0.000    0.000    0.000    0.000 c:\Virtual_Environments\theeng\lib\site-packages\plotly\validators\layout\ternary\caxis\_ticks.py:5(__init__)
        1    0.000    0.000    0.000    0.000 c:\Virtual_Environments\theeng\lib\site-packages\plotly\validators\layout\yaxis\_ticks.py:5(__init__)
        1    0.000    0.000    0.000    0.000 c:\Virtual_Environments\theeng\lib\site-packages\plotly\validators\layout\yaxis\_title.py:5(__init__)
        1    0.000    0.000    0.000    0.000 c:\Virtual_Environments\theeng\lib\site-packages\pandas\io\formats\console.py:9(get_console_size)
        6    0.000    0.000    0.000    0.000 c:\Virtual_Environments\theeng\lib\site-packages\pandas\core\generic.py:5881(<genexpr>)
        2    0.000    0.000    0.000    0.000 c:\Virtual_Environments\theeng\lib\site-packages\pandas\core\reshape\concat.py:708(_concat_indexes)
        6    0.000    0.000    0.000    0.000 c:\Virtual_Environments\theeng\lib\site-packages\sklearn\utils\metaestimators.py:92(<listcomp>)
        1    0.000    0.000    0.000    0.000 c:\Virtual_Environments\theeng\lib\site-packages\plotly\basedatatypes.py:1175(_perform_select_traces)
       12    0.000    0.000    0.000    0.000 c:\Virtual_Environments\theeng\lib\site-packages\plotly\basedatatypes.py:3073(<listcomp>)
        1    0.000    0.000    0.000    0.000 c:\Virtual_Environments\theeng\lib\site-packages\pymoo\util\nds\fast_non_dominated_sort.py:1(<module>)
        1    0.000    0.000    0.000    0.000 c:\Virtual_Environments\theeng\lib\site-packages\pymoo\util\reference_direction.py:120(__init__)
        1    0.000    0.000    0.000    0.000 c:\Virtual_Environments\theeng\lib\site-packages\plotly\validators\layout\_violinmode.py:5(__init__)
        1    0.000    0.000    0.000    0.000 c:\Virtual_Environments\theeng\lib\site-packages\plotly\validators\layout\_sliders.py:5(__init__)
        1    0.000    0.000    0.000    0.000 c:\Virtual_Environments\theeng\lib\site-packages\plotly\validators\layout\_hiddenlabelssrc.py:5(__init__)
        1    0.000    0.000    0.000    0.000 c:\Virtual_Environments\theeng\lib\site-packages\plotly\validators\layout\_geo.py:5(__init__)
        1    0.000    0.000    0.000    0.000 c:\Virtual_Environments\theeng\lib\site-packages\plotly\validators\layout\_hovermode.py:5(__init__)
        1    0.000    0.000    0.000    0.000 c:\Virtual_Environments\theeng\lib\site-packages\plotly\validators\layout\legend\_tracegroupgap.py:5(__init__)
        1    0.000    0.000    0.000    0.000 c:\Virtual_Environments\theeng\lib\site-packages\plotly\validators\layout\_paper_bgcolor.py:5(__init__)
        1    0.000    0.000    0.000    0.000 c:\Virtual_Environments\theeng\lib\site-packages\plotly\validators\bar\marker\pattern\_fillmode.py:5(__init__)
        1    0.000    0.000    0.000    0.000 c:\Virtual_Environments\theeng\lib\site-packages\plotly\graph_objs\parcoords\_domain.py:1(<module>)
        1    0.000    0.000    0.000    0.000 c:\Virtual_Environments\theeng\lib\site-packages\plotly\validators\choropleth\colorbar\_outlinewidth.py:5(__init__)
        1    0.000    0.000    0.000    0.000 c:\Virtual_Environments\theeng\lib\site-packages\plotly\validators\scatter\_mode.py:1(<module>)
        1    0.000    0.000    0.000    0.000 c:\Virtual_Environments\theeng\lib\site-packages\plotly\validators\scatter\_showlegend.py:5(__init__)
        3    0.000    0.000    0.003    0.001 c:\Virtual_Environments\theeng\lib\site-packages\plotly\graph_objs\layout\_margin.py:118(t)
        1    0.000    0.000    0.000    0.000 c:\Virtual_Environments\theeng\lib\site-packages\plotly\validators\contour\colorbar\_ticks.py:5(__init__)
        1    0.000    0.000    0.000    0.000 c:\Virtual_Environments\theeng\lib\site-packages\plotly\graph_objs\_parcats.py:1(<module>)
        1    0.000    0.000    0.000    0.000 c:\Virtual_Environments\theeng\lib\site-packages\plotly\validators\layout\template\data\_histogram2dcontour.py:5(__init__)
        1    0.000    0.000    0.000    0.000 c:\Virtual_Environments\theeng\lib\site-packages\plotly\validators\layout\_sliderdefaults.py:5(__init__)
        1    0.000    0.000    0.000    0.000 c:\Virtual_Environments\theeng\lib\site-packages\plotly\validators\layout\_meta.py:5(__init__)
        1    0.000    0.000    0.000    0.000 c:\Virtual_Environments\theeng\lib\site-packages\plotly\validators\layout\_extendfunnelareacolors.py:5(__init__)
        1    0.000    0.000    0.000    0.000 c:\Virtual_Environments\theeng\lib\site-packages\plotly\validators\parcoords\line\colorbar\_outlinewidth.py:5(__init__)
        1    0.000    0.000    0.000    0.000 c:\Virtual_Environments\theeng\lib\site-packages\plotly\validators\scattergl\marker\colorbar\_outlinewidth.py:5(__init__)
        1    0.000    0.000    0.000    0.000 c:\Virtual_Environments\theeng\lib\site-packages\plotly\validators\scattermapbox\marker\colorbar\_outlinewidth.py:5(__init__)
        1    0.000    0.000    0.000    0.000 c:\Virtual_Environments\theeng\lib\site-packages\plotly\validators\table\cells\fill\_color.py:5(__init__)
        1    0.000    0.000    0.000    0.000 c:\Virtual_Environments\theeng\lib\site-packages\plotly\validators\table\header\_fill.py:5(__init__)
        1    0.000    0.000    0.000    0.000 c:\Virtual_Environments\theeng\lib\site-packages\plotly\validators\table\header\fill\_color.py:5(__init__)
        1    0.000    0.000    0.000    0.000 c:\Virtual_Environments\theeng\lib\site-packages\plotly\validators\layout\coloraxis\colorbar\_outlinewidth.py:5(__init__)
        1    0.000    0.000    0.000    0.000 c:\Virtual_Environments\theeng\lib\site-packages\plotly\validators\layout\hoverlabel\_align.py:5(__init__)
        1    0.000    0.000    0.000    0.000 c:\Virtual_Environments\theeng\lib\site-packages\plotly\validators\layout\scene\_yaxis.py:5(__init__)
        1    0.000    0.000    0.000    0.000 c:\Virtual_Environments\theeng\lib\site-packages\plotly\validators\layout\xaxis\_title.py:5(__init__)
        1    0.000    0.000    0.000    0.000 c:\Virtual_Environments\theeng\lib\site-packages\plotly\validators\layout\xaxis\title\_standoff.py:5(__init__)
        1    0.000    0.000    0.000    0.000 c:\Virtual_Environments\theeng\lib\site-packages\plotly\validators\heatmap\_z.py:5(__init__)
        2    0.000    0.000    0.000    0.000 c:\Virtual_Environments\theeng\lib\site-packages\pandas\core\reshape\concat.py:682(<listcomp>)
        1    0.000    0.000    0.000    0.000 c:\Virtual_Environments\theeng\lib\site-packages\sklearn\model_selection\_split.py:2404(check_cv)
        1    0.000    0.000    0.000    0.000 c:\Virtual_Environments\theeng\lib\site-packages\plotly\validators\layout\_treemapcolorway.py:5(__init__)
        1    0.000    0.000    0.000    0.000 c:\Virtual_Environments\theeng\lib\site-packages\plotly\validators\layout\colorscale\_sequential.py:5(__init__)
        1    0.000    0.000    0.000    0.000 c:\Virtual_Environments\theeng\lib\site-packages\plotly\graph_objs\layout\_template.py:1(<module>)
        1    0.000    0.000    0.000    0.000 c:\Virtual_Environments\theeng\lib\site-packages\plotly\animation.py:1(<module>)
        1    0.000    0.000    0.000    0.000 c:\Virtual_Environments\theeng\lib\site-packages\plotly\validators\layout\_minreducedheight.py:5(__init__)
        1    0.000    0.000    0.000    0.000 c:\Virtual_Environments\theeng\lib\site-packages\plotly\validators\layout\_modebar.py:5(__init__)
        1    0.000    0.000    0.000    0.000 c:\Virtual_Environments\theeng\lib\site-packages\plotly\validators\layout\_autosize.py:5(__init__)
        1    0.000    0.000    0.000    0.000 c:\Virtual_Environments\theeng\lib\site-packages\plotly\graph_objs\layout\_uniformtext.py:5(Uniformtext)
        1    0.000    0.000    0.000    0.000 c:\Virtual_Environments\theeng\lib\site-packages\plotly\graph_objs\layout\_newselection.py:5(Newselection)
        1    0.000    0.000    0.000    0.000 c:\Virtual_Environments\theeng\lib\site-packages\plotly\validators\layout\legend\title\_text.py:5(__init__)
        1    0.000    0.000    0.000    0.000 c:\Virtual_Environments\theeng\lib\site-packages\plotly\validators\layout\template\data\_barpolar.py:5(__init__)
        1    0.000    0.000    0.000    0.000 c:\Virtual_Environments\theeng\lib\site-packages\plotly\validators\bar\error_x\_color.py:5(__init__)
        1    0.000    0.000    0.000    0.000 c:\Virtual_Environments\theeng\lib\site-packages\plotly\validators\layout\template\data\_choropleth.py:5(__init__)
        1    0.000    0.000    0.000    0.000 c:\Virtual_Environments\theeng\lib\site-packages\plotly\validators\layout\_margin.py:5(__init__)
        1    0.000    0.000    0.000    0.000 c:\Virtual_Environments\theeng\lib\site-packages\plotly\graph_objs\layout\_margin.py:1(<module>)
        1    0.000    0.000    0.000    0.000 c:\Virtual_Environments\theeng\lib\site-packages\plotly\validators\layout\template\data\_contourcarpet.py:5(__init__)
        1    0.000    0.000    0.000    0.000 c:\Virtual_Environments\theeng\lib\site-packages\plotly\validators\contourcarpet\colorbar\_outlinewidth.py:5(__init__)
        1    0.000    0.000    0.000    0.000 c:\Virtual_Environments\theeng\lib\site-packages\plotly\validators\contour\_colorbar.py:5(__init__)
        1    0.000    0.000    0.000    0.000 c:\Virtual_Environments\theeng\lib\site-packages\plotly\validators\scatter\_xaxis.py:5(__init__)
        1    0.000    0.000    0.000    0.000 c:\Virtual_Environments\theeng\lib\site-packages\plotly\graph_objs\_choropleth.py:1(<module>)
        1    0.000    0.000    0.000    0.000 c:\Virtual_Environments\theeng\lib\site-packages\plotly\validators\heatmapgl\_colorbar.py:5(__init__)
        1    0.000    0.000    0.000    0.000 c:\Virtual_Environments\theeng\lib\site-packages\plotly\validators\heatmapgl\colorbar\_outlinewidth.py:5(__init__)
        1    0.000    0.000    0.000    0.000 c:\Virtual_Environments\theeng\lib\site-packages\plotly\validators\heatmapgl\colorbar\_ticks.py:5(__init__)
        1    0.000    0.000    0.000    0.000 c:\Virtual_Environments\theeng\lib\site-packages\plotly\validators\heatmap\_colorbar.py:5(__init__)
        1    0.000    0.000    0.000    0.000 c:\Virtual_Environments\theeng\lib\site-packages\plotly\validators\histogram2dcontour\colorbar\_outlinewidth.py:5(__init__)
        1    0.000    0.000    0.000    0.000 c:\Virtual_Environments\theeng\lib\site-packages\plotly\validators\histogram2dcontour\_colorscale.py:5(__init__)
        1    0.000    0.000    0.000    0.000 c:\Virtual_Environments\theeng\lib\site-packages\plotly\validators\mesh3d\colorbar\_outlinewidth.py:5(__init__)
        1    0.000    0.000    0.000    0.000 c:\Virtual_Environments\theeng\lib\site-packages\plotly\validators\layout\_selectdirection.py:5(__init__)
        1    0.000    0.000    0.000    0.000 c:\Virtual_Environments\theeng\lib\site-packages\plotly\validators\layout\_hiddenlabels.py:5(__init__)
        1    0.000    0.000    0.000    0.000 c:\Virtual_Environments\theeng\lib\site-packages\plotly\validators\scatter3d\marker\colorbar\_ticks.py:5(__init__)
        1    0.000    0.000    0.000    0.000 c:\Virtual_Environments\theeng\lib\site-packages\plotly\validators\scattergeo\marker\colorbar\_outlinewidth.py:5(__init__)
        1    0.000    0.000    0.000    0.000 c:\Virtual_Environments\theeng\lib\site-packages\plotly\validators\scattergl\marker\colorbar\_ticks.py:5(__init__)
        1    0.000    0.000    0.000    0.000 c:\Virtual_Environments\theeng\lib\site-packages\plotly\validators\layout\shape\line\_color.py:5(__init__)
        1    0.000    0.000    0.000    0.000 c:\Virtual_Environments\theeng\lib\site-packages\plotly\validators\layout\ternary\baxis\_ticks.py:5(__init__)
        1    0.000    0.000    0.000    0.000 c:\Virtual_Environments\theeng\lib\site-packages\plotly\validators\layout\xaxis\_ticks.py:5(__init__)
        1    0.000    0.000    0.000    0.000 c:\Virtual_Environments\theeng\lib\site-packages\plotly\validators\parcoords\dimension\_label.py:5(__init__)
        1    0.000    0.000    0.000    0.000 c:\Virtual_Environments\theeng\lib\site-packages\plotly\validators\layout\coloraxis\_cmax.py:5(__init__)
        2    0.000    0.000    0.000    0.000 C:\Python38\lib\warnings.py:117(_formatwarnmsg)
       13    0.000    0.000    0.000    0.000 c:\Virtual_Environments\theeng\lib\site-packages\numpy\lib\function_base.py:5246(_insert_dispatcher)
        7    0.000    0.000    0.000    0.000 C:\Python38\lib\typing.py:646(_is_dunder)
        2    0.000    0.000    0.000    0.000 c:\Virtual_Environments\theeng\lib\site-packages\pandas\_config\config.py:447(__exit__)
        3    0.000    0.000    0.000    0.000 c:\Virtual_Environments\theeng\lib\site-packages\pandas\core\dtypes\cast.py:566(_maybe_promote_cached)
        7    0.000    0.000    0.000    0.000 c:\Virtual_Environments\theeng\lib\site-packages\pandas\core\indexes\base.py:728(_constructor)
        1    0.000    0.000    0.001    0.001 c:\Virtual_Environments\theeng\lib\site-packages\pandas\core\apply.py:890(apply_standard)
        5    0.000    0.000    0.000    0.000 c:\Virtual_Environments\theeng\lib\site-packages\pandas\io\formats\format.py:635(is_truncated_horizontally)
        1    0.000    0.000    0.000    0.000 c:\Virtual_Environments\theeng\lib\site-packages\pymoo\core\mating.py:8(__init__)
        1    0.000    0.000    0.000    0.000 c:\Virtual_Environments\theeng\lib\site-packages\deprecated\classic.py:119(get_deprecated_msg)
       23    0.000    0.000    0.000    0.000 {method 'items' of 'collections.OrderedDict' objects}
        1    0.000    0.000    0.000    0.000 c:\Virtual_Environments\theeng\lib\site-packages\plotly\validators\layout\_colorscale.py:5(__init__)
        1    0.000    0.000    0.000    0.000 c:\Virtual_Environments\theeng\lib\site-packages\plotly\validators\layout\_template.py:5(__init__)
        1    0.000    0.000    0.000    0.000 c:\Virtual_Environments\theeng\lib\site-packages\plotly\validators\layout\yaxis\_anchor.py:5(__init__)
        1    0.000    0.000    0.000    0.000 c:\Virtual_Environments\theeng\lib\site-packages\plotly\graph_objs\layout\_xaxis.py:1(<module>)
        1    0.000    0.000    0.001    0.001 c:\Virtual_Environments\theeng\lib\site-packages\plotly\graph_objs\_densitymapbox.py:1(<module>)
        1    0.000    0.000    0.000    0.000 c:\Virtual_Environments\theeng\lib\site-packages\plotly\graph_objs\layout\_modebar.py:1(<module>)
        1    0.000    0.000    0.000    0.000 c:\Virtual_Environments\theeng\lib\site-packages\plotly\validators\layout\_editrevision.py:5(__init__)
        1    0.000    0.000    0.000    0.000 c:\Virtual_Environments\theeng\lib\site-packages\plotly\validators\layout\_selections.py:5(__init__)
        1    0.000    0.000    0.000    0.000 c:\Virtual_Environments\theeng\lib\site-packages\plotly\validators\layout\_extendtreemapcolors.py:5(__init__)
        1    0.000    0.000    0.000    0.000 c:\Virtual_Environments\theeng\lib\site-packages\plotly\validators\layout\_sunburstcolorway.py:5(__init__)
        1    0.000    0.000    0.000    0.000 c:\Virtual_Environments\theeng\lib\site-packages\plotly\validators\layout\_scattermode.py:5(__init__)
        1    0.000    0.000    0.000    0.000 c:\Virtual_Environments\theeng\lib\site-packages\plotly\validators\bar\marker\_line.py:5(__init__)
        1    0.000    0.000    0.000    0.000 c:\Virtual_Environments\theeng\lib\site-packages\plotly\validators\carpet\baxis\_startlinecolor.py:5(__init__)
        1    0.000    0.000    0.000    0.000 c:\Virtual_Environments\theeng\lib\site-packages\plotly\validators\layout\xaxis\title\_text.py:5(__init__)
        1    0.000    0.000    0.000    0.000 c:\Virtual_Environments\theeng\lib\site-packages\plotly\validators\scatter\_y.py:5(__init__)
        1    0.000    0.000    0.002    0.002 c:\Virtual_Environments\theeng\lib\site-packages\plotly\graph_objs\layout\template\data\_contourcarpet.py:1(<module>)
        1    0.000    0.000    0.000    0.000 c:\Virtual_Environments\theeng\lib\site-packages\plotly\validators\layout\template\data\_contour.py:5(__init__)
        1    0.000    0.000    0.000    0.000 c:\Virtual_Environments\theeng\lib\site-packages\plotly\validators\contour\colorbar\_outlinewidth.py:5(__init__)
        1    0.000    0.000    0.000    0.000 c:\Virtual_Environments\theeng\lib\site-packages\plotly\graph_objs\_parcoords.py:1(<module>)
        1    0.000    0.000    0.000    0.000 c:\Virtual_Environments\theeng\lib\site-packages\plotly\validators\layout\template\data\_histogram.py:5(__init__)
        1    0.000    0.000    0.000    0.000 c:\Virtual_Environments\theeng\lib\site-packages\plotly\validators\mesh3d\_colorbar.py:5(__init__)
        1    0.000    0.000    0.000    0.000 c:\Virtual_Environments\theeng\lib\site-packages\plotly\validators\layout\_barmode.py:5(__init__)
        1    0.000    0.000    0.000    0.000 c:\Virtual_Environments\theeng\lib\site-packages\plotly\validators\layout\template\data\_parcoords.py:5(__init__)
        1    0.000    0.000    0.000    0.000 c:\Virtual_Environments\theeng\lib\site-packages\plotly\validators\heatmap\_texttemplate.py:5(__init__)
        1    0.000    0.000    0.000    0.000 c:\Virtual_Environments\theeng\lib\site-packages\plotly\validators\pie\_automargin.py:5(__init__)
        1    0.000    0.000    0.000    0.000 c:\Virtual_Environments\theeng\lib\site-packages\plotly\validators\scatter3d\_line.py:5(__init__)
        1    0.000    0.000    0.000    0.000 c:\Virtual_Environments\theeng\lib\site-packages\plotly\validators\scatter3d\line\colorbar\_outlinewidth.py:5(__init__)
        1    0.000    0.000    0.000    0.000 c:\Virtual_Environments\theeng\lib\site-packages\plotly\validators\layout\template\data\_scatterpolargl.py:5(__init__)
        1    0.000    0.000    0.000    0.000 c:\Virtual_Environments\theeng\lib\site-packages\plotly\validators\scatterpolargl\_marker.py:5(__init__)
        1    0.000    0.000    0.000    0.000 c:\Virtual_Environments\theeng\lib\site-packages\plotly\validators\scatterpolargl\marker\_colorbar.py:5(__init__)
        1    0.000    0.000    0.000    0.000 c:\Virtual_Environments\theeng\lib\site-packages\plotly\validators\layout\template\data\_surface.py:5(__init__)
        1    0.000    0.000    0.000    0.000 c:\Virtual_Environments\theeng\lib\site-packages\plotly\validators\table\cells\line\_color.py:5(__init__)
        1    0.000    0.000    0.000    0.000 c:\Virtual_Environments\theeng\lib\site-packages\plotly\validators\layout\polar\angularaxis\_ticks.py:5(__init__)
        1    0.000    0.000    0.000    0.000 c:\Virtual_Environments\theeng\lib\site-packages\plotly\validators\layout\scene\yaxis\_zerolinecolor.py:5(__init__)
        1    0.000    0.000    0.000    0.000 c:\Virtual_Environments\theeng\lib\site-packages\plotly\validators\layout\scene\zaxis\_backgroundcolor.py:5(__init__)
        1    0.000    0.000    0.000    0.000 c:\Virtual_Environments\theeng\lib\site-packages\plotly\validators\layout\ternary\_aaxis.py:5(__init__)
        1    0.000    0.000    0.000    0.000 c:\Virtual_Environments\theeng\lib\site-packages\plotly\validators\layout\ternary\baxis\_gridcolor.py:5(__init__)
        1    0.000    0.000    0.000    0.000 c:\Virtual_Environments\theeng\lib\site-packages\plotly\validators\layout\ternary\_caxis.py:5(__init__)
        1    0.000    0.000    0.000    0.000 c:\Virtual_Environments\theeng\lib\site-packages\plotly\validators\layout\yaxis\title\_standoff.py:5(__init__)
        2    0.000    0.000    0.000    0.000 C:\Python38\lib\linecache.py:37(getlines)
        2    0.000    0.000    0.000    0.000 c:\Virtual_Environments\theeng\lib\site-packages\pandas\core\dtypes\cast.py:739(infer_dtype_from)
        1    0.000    0.000    0.000    0.000 c:\Virtual_Environments\theeng\lib\site-packages\pandas\core\ops\__init__.py:229(to_series)
        2    0.000    0.000    0.000    0.000 c:\Virtual_Environments\theeng\lib\site-packages\pandas\core\indexes\base.py:7363(<listcomp>)
        1    0.000    0.000    0.000    0.000 c:\Virtual_Environments\theeng\lib\site-packages\pandas\core\apply.py:82(frame_apply)
        1    0.000    0.000    0.000    0.000 c:\Virtual_Environments\theeng\lib\site-packages\pandas\core\generic.py:1699(_is_label_reference)
        3    0.000    0.000    0.000    0.000 c:\Virtual_Environments\theeng\lib\site-packages\pandas\io\formats\format.py:631(is_truncated)
        1    0.000    0.000    0.000    0.000 c:\Virtual_Environments\theeng\lib\site-packages\pandas\core\series.py:6257(_arith_method)
       20    0.000    0.000    0.000    0.000 c:\Virtual_Environments\theeng\lib\site-packages\pymoo\core\callback.py:17(_update)
        9    0.000    0.000    0.000    0.000 {method 'conj' of 'numpy.ndarray' objects}
        3    0.000    0.000    0.000    0.000 c:\Virtual_Environments\theeng\lib\site-packages\plotly\_subplots.py:1054(_validate_coerce_subplot_type)
        1    0.000    0.000    0.000    0.000 c:\Virtual_Environments\theeng\lib\site-packages\pymoo\util\hv.py:1(<module>)
        1    0.000    0.000    0.013    0.013 c:\Virtual_Environments\theeng\lib\site-packages\plotly\offline\__init__.py:1(<module>)
        1    0.000    0.000    0.000    0.000 c:\Virtual_Environments\theeng\lib\site-packages\plotly\graph_objs\_treemap.py:1(<module>)
        1    0.000    0.000    0.000    0.000 c:\Virtual_Environments\theeng\lib\site-packages\plotly\validators\layout\_legend.py:5(__init__)
        1    0.000    0.000    0.000    0.000 c:\Virtual_Environments\theeng\lib\site-packages\plotly\validators\layout\_computed.py:5(__init__)
        1    0.000    0.000    0.000    0.000 c:\Virtual_Environments\theeng\lib\site-packages\plotly\validators\layout\_shapes.py:5(__init__)
        1    0.000    0.000    0.000    0.000 c:\Virtual_Environments\theeng\lib\site-packages\plotly\validators\layout\_extendsunburstcolors.py:5(__init__)
        1    0.000    0.000    0.000    0.000 c:\Virtual_Environments\theeng\lib\site-packages\plotly\validators\layout\_uniformtext.py:5(__init__)
        1    0.000    0.000    0.000    0.000 c:\Virtual_Environments\theeng\lib\site-packages\plotly\validators\layout\_selectiondefaults.py:5(__init__)
        1    0.000    0.000    0.000    0.000 c:\Virtual_Environments\theeng\lib\site-packages\plotly\validators\layout\_datarevision.py:5(__init__)
        1    0.000    0.000    0.000    0.000 c:\Virtual_Environments\theeng\lib\site-packages\plotly\validators\barpolar\marker\pattern\_fillmode.py:5(__init__)
        1    0.000    0.000    0.000    0.000 c:\Virtual_Environments\theeng\lib\site-packages\plotly\validators\layout\template\data\_carpet.py:5(__init__)
        1    0.000    0.000    0.000    0.000 c:\Virtual_Environments\theeng\lib\site-packages\plotly\validators\carpet\_aaxis.py:5(__init__)
        1    0.000    0.000    0.000    0.000 c:\Virtual_Environments\theeng\lib\site-packages\plotly\validators\carpet\baxis\_endlinecolor.py:5(__init__)
        1    0.000    0.000    0.000    0.000 c:\Virtual_Environments\theeng\lib\site-packages\plotly\graph_objs\_choroplethmapbox.py:1(<module>)
        1    0.000    0.000    0.000    0.000 c:\Virtual_Environments\theeng\lib\site-packages\plotly\validator_cache.py:1(<module>)
        1    0.000    0.000    0.001    0.001 c:\Virtual_Environments\theeng\lib\site-packages\plotly\graph_objs\_contourcarpet.py:1(<module>)
        1    0.000    0.000    0.000    0.000 c:\Virtual_Environments\theeng\lib\site-packages\plotly\validators\layout\template\data\_heatmap.py:5(__init__)
        1    0.000    0.000    0.000    0.000 c:\Virtual_Environments\theeng\lib\site-packages\plotly\graph_objs\_heatmap.py:1(<module>)
        1    0.000    0.000    0.000    0.000 c:\Virtual_Environments\theeng\lib\site-packages\plotly\validators\parcoords\line\_colorbar.py:5(__init__)
        1    0.000    0.000    0.000    0.000 c:\Virtual_Environments\theeng\lib\site-packages\plotly\validators\parcoords\line\colorbar\_ticks.py:5(__init__)
        1    0.000    0.000    0.000    0.000 c:\Virtual_Environments\theeng\lib\site-packages\plotly\graph_objs\_scatterpolargl.py:1(<module>)
        1    0.000    0.000    0.000    0.000 c:\Virtual_Environments\theeng\lib\site-packages\plotly\validators\scatterpolar\marker\colorbar\_ticks.py:5(__init__)
        1    0.000    0.000    0.000    0.000 c:\Virtual_Environments\theeng\lib\site-packages\plotly\validators\scatter\_fillpattern.py:5(__init__)
        1    0.000    0.000    0.000    0.000 c:\Virtual_Environments\theeng\lib\site-packages\plotly\validators\surface\_colorbar.py:5(__init__)
        1    0.000    0.000    0.000    0.000 c:\Virtual_Environments\theeng\lib\site-packages\plotly\graph_objs\table\cells\_fill.py:5(Fill)
        1    0.000    0.000    0.000    0.000 c:\Virtual_Environments\theeng\lib\site-packages\plotly\validators\layout\geo\_bgcolor.py:5(__init__)
        1    0.000    0.000    0.000    0.000 c:\Virtual_Environments\theeng\lib\site-packages\plotly\validators\layout\geo\_lakecolor.py:5(__init__)
        1    0.000    0.000    0.000    0.000 c:\Virtual_Environments\theeng\lib\site-packages\plotly\validators\layout\geo\_showlakes.py:5(__init__)
        1    0.000    0.000    0.000    0.000 c:\Virtual_Environments\theeng\lib\site-packages\plotly\validators\layout\scene\_xaxis.py:5(__init__)
        1    0.000    0.000    0.000    0.000 c:\Virtual_Environments\theeng\lib\site-packages\plotly\validators\layout\scene\yaxis\_showbackground.py:5(__init__)
        1    0.000    0.000    0.000    0.000 c:\Virtual_Environments\theeng\lib\site-packages\plotly\validators\layout\yaxis\_linecolor.py:5(__init__)
        3    0.000    0.000    0.000    0.000 C:\Python38\lib\os.py:766(getenv)
       19    0.000    0.000    0.000    0.000 c:\Virtual_Environments\theeng\lib\site-packages\numpy\core\numeric.py:2274(_isclose_dispatcher)
        1    0.000    0.000    0.000    0.000 C:\Python38\lib\typing.py:255(inner)
        2    0.000    0.000    0.000    0.000 c:\Virtual_Environments\theeng\lib\site-packages\pandas\core\groupby\groupby.py:736(<listcomp>)
        1    0.000    0.000    0.000    0.000 c:\Virtual_Environments\theeng\lib\site-packages\joblib\logger.py:39(short_format_time)
        5    0.000    0.000    0.000    0.000 c:\Virtual_Environments\theeng\lib\site-packages\joblib\parallel.py:371(__init__)
        5    0.000    0.000    0.000    0.000 c:\Virtual_Environments\theeng\lib\site-packages\sklearn\model_selection\_validation.py:787(<listcomp>)
        2    0.000    0.000    0.000    0.000 c:\Virtual_Environments\theeng\lib\site-packages\plotly\express\_core.py:1061(_escape_col_name)
        3    0.000    0.000    0.000    0.000 c:\Virtual_Environments\theeng\lib\site-packages\plotly\_subplots.py:1228(<listcomp>)
        6    0.000    0.000    0.000    0.000 c:\Virtual_Environments\theeng\lib\site-packages\plotly\_subplots.py:1232(<setcomp>)
        1    0.000    0.000    0.001    0.001 c:\Virtual_Environments\theeng\lib\site-packages\plotly\graph_objs\_figure.py:21727(select_yaxes)
        1    0.000    0.000    0.000    0.000 C:\Engineering Programs\FreeCAD 0.20\Mod\Fem\femsolver\calculix\write_mesh.py:24(<module>)
        1    0.000    0.000    0.000    0.000 c:\Virtual_Environments\theeng\lib\site-packages\plotly\graph_objs\layout\_colorscale.py:1(<module>)
        1    0.000    0.000    0.000    0.000 c:\Virtual_Environments\theeng\lib\site-packages\plotly\graph_objs\_pie.py:1(<module>)
        1    0.000    0.000    0.000    0.000 c:\Virtual_Environments\theeng\lib\site-packages\plotly\validators\scatter\_marker.py:5(__init__)
        1    0.000    0.000    0.000    0.000 c:\Virtual_Environments\theeng\lib\site-packages\plotly\validators\layout\_activeshape.py:5(__init__)
        1    0.000    0.000    0.000    0.000 c:\Virtual_Environments\theeng\lib\site-packages\plotly\validators\layout\_showlegend.py:5(__init__)
        1    0.000    0.000    0.000    0.000 c:\Virtual_Environments\theeng\lib\site-packages\plotly\validators\layout\_updatemenudefaults.py:5(__init__)
        1    0.000    0.000    0.000    0.000 c:\Virtual_Environments\theeng\lib\site-packages\plotly\graph_objs\layout\_newshape.py:1(<module>)
        1    0.000    0.000    0.000    0.000 c:\Virtual_Environments\theeng\lib\site-packages\plotly\validators\layout\_imagedefaults.py:5(__init__)
        1    0.000    0.000    0.000    0.000 c:\Virtual_Environments\theeng\lib\site-packages\plotly\validators\layout\_images.py:5(__init__)
        1    0.000    0.000    0.001    0.001 c:\Virtual_Environments\theeng\lib\site-packages\plotly\io\json.py:1(<module>)
        1    0.000    0.000    0.000    0.000 c:\Virtual_Environments\theeng\lib\site-packages\plotly\validators\barpolar\_marker.py:5(__init__)
        1    0.000    0.000    0.000    0.000 c:\Virtual_Environments\theeng\lib\site-packages\plotly\validators\carpet\aaxis\_endlinecolor.py:5(__init__)
        1    0.000    0.000    0.000    0.000 c:\Virtual_Environments\theeng\lib\site-packages\plotly\graph_objs\_splom.py:1(<module>)
        1    0.000    0.000    0.000    0.000 c:\Virtual_Environments\theeng\lib\site-packages\plotly\graph_objs\histogram2dcontour\_colorbar.py:1(<module>)
        1    0.000    0.000    0.000    0.000 c:\Virtual_Environments\theeng\lib\site-packages\plotly\validators\histogram2d\_colorbar.py:5(__init__)
        1    0.000    0.000    0.000    0.000 c:\Virtual_Environments\theeng\lib\site-packages\plotly\validators\histogram\marker\_pattern.py:5(__init__)
        1    0.000    0.000    0.000    0.000 c:\Virtual_Environments\theeng\lib\site-packages\plotly\validators\parcoords\_line.py:5(__init__)
        1    0.000    0.000    0.000    0.000 c:\Virtual_Environments\theeng\lib\site-packages\plotly\validators\layout\template\data\_pie.py:5(__init__)
        1    0.000    0.000    0.000    0.000 c:\Virtual_Environments\theeng\lib\site-packages\plotly\validators\scatter3d\line\colorbar\_ticks.py:5(__init__)
        1    0.000    0.000    0.000    0.000 c:\Virtual_Environments\theeng\lib\site-packages\plotly\graph_objs\scatter3d\_marker.py:1(<module>)
        1    0.000    0.000    0.000    0.000 c:\Virtual_Environments\theeng\lib\site-packages\plotly\validators\layout\template\data\_scattercarpet.py:5(__init__)
        1    0.000    0.000    0.000    0.000 c:\Virtual_Environments\theeng\lib\site-packages\plotly\validators\scattergeo\_marker.py:5(__init__)
        1    0.000    0.000    0.000    0.000 c:\Virtual_Environments\theeng\lib\site-packages\plotly\validators\scatterpolar\marker\_colorbar.py:5(__init__)
        1    0.000    0.000    0.000    0.000 c:\Virtual_Environments\theeng\lib\site-packages\plotly\validators\scatterternary\marker\_colorbar.py:5(__init__)
        1    0.000    0.000    0.000    0.000 c:\Virtual_Environments\theeng\lib\site-packages\plotly\graph_objs\_surface.py:1(<module>)
        1    0.000    0.000    0.000    0.000 c:\Virtual_Environments\theeng\lib\site-packages\plotly\graph_objs\table\header\_fill.py:5(Fill)
        1    0.000    0.000    0.000    0.000 c:\Virtual_Environments\theeng\lib\site-packages\plotly\graph_objs\table\header\_fill.py:1(<module>)
        1    0.000    0.000    0.000    0.000 c:\Virtual_Environments\theeng\lib\site-packages\plotly\validators\table\header\line\_color.py:5(__init__)
        1    0.000    0.000    0.000    0.000 c:\Virtual_Environments\theeng\lib\site-packages\plotly\validators\layout\colorscale\_diverging.py:5(__init__)
        1    0.000    0.000    0.000    0.000 c:\Virtual_Environments\theeng\lib\site-packages\plotly\validators\layout\font\_color.py:5(__init__)
        1    0.000    0.000    0.000    0.000 c:\Virtual_Environments\theeng\lib\site-packages\plotly\graph_objs\layout\polar\_angularaxis.py:1(<module>)
        1    0.000    0.000    0.000    0.000 c:\Virtual_Environments\theeng\lib\site-packages\plotly\graph_objs\layout\scene\_xaxis.py:1(<module>)
        1    0.000    0.000    0.000    0.000 c:\Virtual_Environments\theeng\lib\site-packages\plotly\validators\layout\scene\_zaxis.py:5(__init__)
        1    0.000    0.000    0.000    0.000 c:\Virtual_Environments\theeng\lib\site-packages\plotly\validators\layout\shape\_line.py:5(__init__)
        1    0.000    0.000    0.000    0.000 c:\Virtual_Environments\theeng\lib\site-packages\plotly\validators\layout\ternary\aaxis\_linecolor.py:5(__init__)
        1    0.000    0.000    0.000    0.000 c:\Virtual_Environments\theeng\lib\site-packages\plotly\validators\layout\ternary\_baxis.py:5(__init__)
        1    0.000    0.000    0.000    0.000 c:\Virtual_Environments\theeng\lib\site-packages\plotly\validators\layout\xaxis\_zerolinewidth.py:5(__init__)
       22    0.000    0.000    0.000    0.000 c:\Virtual_Environments\theeng\lib\site-packages\numpy\lib\function_base.py:5440(_append_dispatcher)
        2    0.000    0.000    0.000    0.000 C:\Python38\lib\random.py:94(__init__)
        2    0.000    0.000    0.000    0.000 c:\Virtual_Environments\theeng\lib\site-packages\pandas\core\config_init.py:392(_deprecate_negative_int_max_colwidth)
        1    0.000    0.000    0.000    0.000 c:\Virtual_Environments\theeng\lib\site-packages\pandas\core\nanops.py:588(nansum)
        1    0.000    0.000    0.000    0.000 c:\Virtual_Environments\theeng\lib\site-packages\pandas\core\strings\object_array.py:283(_str_len)
        6    0.000    0.000    0.000    0.000 c:\Virtual_Environments\theeng\lib\site-packages\pandas\core\indexes\base.py:7336(ensure_has_len)
        1    0.000    0.000    0.000    0.000 c:\Virtual_Environments\theeng\lib\site-packages\pandas\core\indexes\base.py:7450(<listcomp>)
        1    0.000    0.000    0.000    0.000 c:\Virtual_Environments\theeng\lib\site-packages\pandas\core\indexes\numeric.py:124(__new__)
        1    0.000    0.000    0.000    0.000 c:\Virtual_Environments\theeng\lib\site-packages\pymoo\core\operator.py:8(__init__)
        3    0.000    0.000    0.000    0.000 c:\Virtual_Environments\theeng\lib\site-packages\theeng\core\problem.py:283(_checkExpressions)
        6    0.000    0.000    0.000    0.000 {built-in method _operator.ge}
        3    0.000    0.000    0.000    0.000 c:\Virtual_Environments\theeng\lib\site-packages\theeng\algorithms\visualizations.py:7(__init__)
        1    0.000    0.000    0.000    0.000 C:\Engineering Programs\FreeCAD 0.20\Mod\Fem\femsolver\report.py:24(<module>)
        1    0.000    0.000    0.000    0.000 C:\Engineering Programs\FreeCAD 0.20\Mod\Fem\femobjects\mesh_result.py:24(<module>)
        3    0.000    0.000    0.002    0.001 c:\Virtual_Environments\theeng\lib\site-packages\plotly\graph_objs\_layout.py:3485(template)
        1    0.000    0.000    0.000    0.000 c:\Virtual_Environments\theeng\lib\site-packages\plotly\graph_objs\layout\_yaxis.py:1(<module>)
        1    0.000    0.000    0.000    0.000 c:\Virtual_Environments\theeng\lib\site-packages\pymoo\util\reference_direction.py:98(das_dennis)
        1    0.000    0.000    0.000    0.000 c:\Virtual_Environments\theeng\lib\site-packages\plotly\validators\layout\_smith.py:5(__init__)
        1    0.000    0.000    0.000    0.000 c:\Virtual_Environments\theeng\lib\site-packages\plotly\graph_objs\layout\_scene.py:1(<module>)
        1    0.000    0.000    0.000    0.000 c:\Virtual_Environments\theeng\lib\site-packages\plotly\validators\layout\_font.py:5(__init__)
        1    0.000    0.000    0.000    0.000 c:\Virtual_Environments\theeng\lib\site-packages\plotly\validators\layout\_hoverlabel.py:5(__init__)
        1    0.000    0.000    0.000    0.000 c:\Virtual_Environments\theeng\lib\site-packages\plotly\validators\layout\_polar.py:5(__init__)
        1    0.000    0.000    0.000    0.000 c:\Virtual_Environments\theeng\lib\site-packages\plotly\validators\barpolar\marker\_line.py:5(__init__)
        1    0.000    0.000    0.000    0.000 c:\Virtual_Environments\theeng\lib\site-packages\plotly\validators\layout\template\data\_bar.py:5(__init__)
        1    0.000    0.000    0.000    0.000 c:\Virtual_Environments\theeng\lib\site-packages\plotly\validators\layout\template\data\_scatter.py:5(__init__)
        1    0.000    0.000    0.000    0.000 c:\Virtual_Environments\theeng\lib\site-packages\plotly\graph_objs\carpet\_aaxis.py:1(<module>)
        1    0.000    0.000    0.000    0.000 c:\Virtual_Environments\theeng\lib\site-packages\plotly\validators\carpet\aaxis\_linecolor.py:5(__init__)
        1    0.000    0.000    0.000    0.000 c:\Virtual_Environments\theeng\lib\site-packages\plotly\validators\carpet\aaxis\_minorgridcolor.py:5(__init__)
        1    0.000    0.000    0.000    0.000 c:\Virtual_Environments\theeng\lib\site-packages\plotly\validators\carpet\baxis\_minorgridcolor.py:5(__init__)
        1    0.000    0.000    0.000    0.000 c:\Virtual_Environments\theeng\lib\site-packages\plotly\validators\choropleth\_colorbar.py:5(__init__)
        1    0.000    0.000    0.000    0.000 c:\Virtual_Environments\theeng\lib\site-packages\plotly\validators\layout\template\data\_heatmapgl.py:5(__init__)
        1    0.000    0.000    0.000    0.000 c:\Virtual_Environments\theeng\lib\site-packages\plotly\graph_objs\heatmapgl\_colorbar.py:1(<module>)
        1    0.000    0.000    0.000    0.000 c:\Virtual_Environments\theeng\lib\site-packages\plotly\validators\histogram2dcontour\_colorbar.py:5(__init__)
        1    0.000    0.000    0.000    0.000 c:\Virtual_Environments\theeng\lib\site-packages\plotly\validators\histogram\_marker.py:5(__init__)
        1    0.000    0.000    0.000    0.000 c:\Virtual_Environments\theeng\lib\site-packages\plotly\graph_objs\histogram\_marker.py:1(<module>)
        1    0.000    0.000    0.000    0.000 c:\Virtual_Environments\theeng\lib\site-packages\plotly\graph_objs\histogram\marker\_pattern.py:1(<module>)
        1    0.000    0.000    0.000    0.000 c:\Virtual_Environments\theeng\lib\site-packages\plotly\validators\layout\template\data\_mesh3d.py:5(__init__)
        1    0.000    0.000    0.000    0.000 c:\Virtual_Environments\theeng\lib\site-packages\plotly\graph_objs\layout\_transition.py:1(<module>)
        1    0.000    0.000    0.000    0.000 c:\Virtual_Environments\theeng\lib\site-packages\plotly\validators\layout\_hidesources.py:5(__init__)
        1    0.000    0.000    0.000    0.000 c:\Virtual_Environments\theeng\lib\site-packages\plotly\validators\layout\_shapedefaults.py:5(__init__)
        1    0.000    0.000    0.000    0.000 c:\Virtual_Environments\theeng\lib\site-packages\plotly\validators\layout\_extendpiecolors.py:5(__init__)
        1    0.000    0.000    0.000    0.000 c:\Virtual_Environments\theeng\lib\site-packages\plotly\validators\layout\coloraxis\_colorbar.py:5(__init__)
        1    0.000    0.000    0.000    0.000 c:\Virtual_Environments\theeng\lib\site-packages\plotly\validators\scatter3d\line\_colorbar.py:5(__init__)
        1    0.000    0.000    0.000    0.000 c:\Virtual_Environments\theeng\lib\site-packages\plotly\validators\scatter3d\marker\_colorbar.py:5(__init__)
        1    0.000    0.000    0.000    0.000 c:\Virtual_Environments\theeng\lib\site-packages\plotly\validators\scattercarpet\marker\_colorbar.py:5(__init__)
        1    0.000    0.000    0.000    0.000 c:\Virtual_Environments\theeng\lib\site-packages\plotly\validators\layout\template\data\_scattergeo.py:5(__init__)
        1    0.000    0.000    0.000    0.000 c:\Virtual_Environments\theeng\lib\site-packages\plotly\validators\scattergeo\marker\_colorbar.py:5(__init__)
        1    0.000    0.000    0.000    0.000 c:\Virtual_Environments\theeng\lib\site-packages\plotly\validators\scattergl\_marker.py:5(__init__)
        1    0.000    0.000    0.000    0.000 c:\Virtual_Environments\theeng\lib\site-packages\plotly\validators\layout\template\data\_scattermapbox.py:5(__init__)
        1    0.000    0.000    0.000    0.000 c:\Virtual_Environments\theeng\lib\site-packages\plotly\validators\scattermapbox\_marker.py:5(__init__)
        1    0.000    0.000    0.000    0.000 c:\Virtual_Environments\theeng\lib\site-packages\plotly\validators\layout\template\data\_scatterpolar.py:5(__init__)
        1    0.000    0.000    0.000    0.000 c:\Virtual_Environments\theeng\lib\site-packages\plotly\validators\scatterpolar\_marker.py:5(__init__)
        1    0.000    0.000    0.000    0.000 c:\Virtual_Environments\theeng\lib\site-packages\plotly\graph_objs\_scatterternary.py:1(<module>)
        1    0.000    0.000    0.000    0.000 c:\Virtual_Environments\theeng\lib\site-packages\plotly\graph_objs\scatterternary\_marker.py:1(<module>)
        1    0.000    0.000    0.000    0.000 c:\Virtual_Environments\theeng\lib\site-packages\plotly\graph_objs\scatterternary\marker\_colorbar.py:1(<module>)
        1    0.000    0.000    0.000    0.000 c:\Virtual_Environments\theeng\lib\site-packages\plotly\validators\table\_cells.py:5(__init__)
        1    0.000    0.000    0.000    0.000 c:\Virtual_Environments\theeng\lib\site-packages\plotly\validators\layout\geo\_showland.py:5(__init__)
        1    0.000    0.000    0.000    0.000 c:\Virtual_Environments\theeng\lib\site-packages\plotly\validators\layout\polar\_radialaxis.py:5(__init__)
        1    0.000    0.000    0.000    0.000 c:\Virtual_Environments\theeng\lib\site-packages\plotly\validators\layout\scene\xaxis\_gridcolor.py:5(__init__)
        1    0.000    0.000    0.000    0.000 c:\Virtual_Environments\theeng\lib\site-packages\plotly\validators\layout\scene\yaxis\_backgroundcolor.py:5(__init__)
        1    0.000    0.000    0.000    0.000 c:\Virtual_Environments\theeng\lib\site-packages\plotly\validators\layout\scene\yaxis\_gridcolor.py:5(__init__)
        1    0.000    0.000    0.000    0.000 c:\Virtual_Environments\theeng\lib\site-packages\plotly\graph_objs\layout\scene\_zaxis.py:1(<module>)
        1    0.000    0.000    0.000    0.000 c:\Virtual_Environments\theeng\lib\site-packages\plotly\graph_objs\layout\ternary\_baxis.py:1(<module>)
        1    0.000    0.000    0.000    0.000 c:\Virtual_Environments\theeng\lib\site-packages\plotly\validators\layout\ternary\_bgcolor.py:5(__init__)
        5    0.000    0.000    0.000    0.000 c:\Virtual_Environments\theeng\lib\site-packages\pandas\core\common.py:651(resolve_numeric_only)
        3    0.000    0.000    0.000    0.000 c:\Virtual_Environments\theeng\lib\site-packages\pandas\core\ops\__init__.py:315(should_reindex_frame_op)
        2    0.000    0.000    0.000    0.000 c:\Virtual_Environments\theeng\lib\site-packages\pandas\core\groupby\groupby.py:694(get_converter)
       13    0.000    0.000    0.000    0.000 c:\Virtual_Environments\theeng\lib\site-packages\pandas\core\internals\managers.py:330(<dictcomp>)
        1    0.000    0.000    0.000    0.000 c:\Virtual_Environments\theeng\lib\site-packages\sklearn\model_selection\_split.py:288(__init__)
        5    0.000    0.000    0.000    0.000 c:\Virtual_Environments\theeng\lib\site-packages\sklearn\metrics\_scorer.py:102(__init__)
        5    0.000    0.000    0.000    0.000 c:\Virtual_Environments\theeng\lib\site-packages\sklearn\metrics\_scorer.py:127(_use_cache)
        1    0.000    0.000    0.003    0.003 c:\Virtual_Environments\theeng\lib\site-packages\plotly\basedatatypes.py:2307(_set_trace_grid_position)
        1    0.000    0.000    0.000    0.000 C:\Engineering Programs\FreeCAD 0.20\Mod\Fem\femsolver\calculix\write_constraint_planerotation.py:24(<module>)
        1    0.000    0.000    0.000    0.000 c:\Virtual_Environments\theeng\lib\site-packages\pymoo\util\stochastic_ranking.py:1(<module>)
        1    0.000    0.000    0.000    0.000 c:\Virtual_Environments\theeng\lib\site-packages\plotly\validators\layout\_yaxis.py:5(__init__)
        1    0.000    0.000    0.000    0.000 c:\Virtual_Environments\theeng\lib\site-packages\plotly\graph_objs\_icicle.py:1(<module>)
        1    0.000    0.000    0.000    0.000 c:\Virtual_Environments\theeng\lib\site-packages\plotly\validators\layout\_grid.py:5(__init__)
        1    0.000    0.000    0.000    0.000 c:\Virtual_Environments\theeng\lib\site-packages\plotly\validators\layout\_scene.py:5(__init__)
        1    0.000    0.000    0.000    0.000 c:\Virtual_Environments\theeng\lib\site-packages\plotly\validators\layout\_activeselection.py:5(__init__)
        1    0.000    0.000    0.000    0.000 c:\Virtual_Environments\theeng\lib\site-packages\plotly\validators\layout\_funnelareacolorway.py:5(__init__)
        1    0.000    0.000    0.000    0.000 c:\Virtual_Environments\theeng\lib\site-packages\plotly\graph_objs\layout\_image.py:1(<module>)
        1    0.000    0.000    0.000    0.000 c:\Virtual_Environments\theeng\lib\site-packages\plotly\validators\layout\_extendiciclecolors.py:5(__init__)
        1    0.000    0.000    0.000    0.000 c:\Virtual_Environments\theeng\lib\site-packages\plotly\validators\layout\_ternary.py:5(__init__)
        1    0.000    0.000    0.000    0.000 c:\Virtual_Environments\theeng\lib\site-packages\plotly\graph_objs\layout\_hoverlabel.py:1(<module>)
        1    0.000    0.000    0.000    0.000 c:\Virtual_Environments\theeng\lib\site-packages\plotly\validators\layout\_piecolorway.py:5(__init__)
        1    0.000    0.000    0.000    0.000 c:\Virtual_Environments\theeng\lib\site-packages\plotly\validators\barpolar\marker\pattern\_size.py:1(<module>)
        1    0.000    0.000    0.000    0.000 c:\Virtual_Environments\theeng\lib\site-packages\plotly\validators\bar\_error_x.py:5(__init__)
        1    0.000    0.000    0.000    0.000 c:\Virtual_Environments\theeng\lib\site-packages\plotly\validators\bar\_marker.py:5(__init__)
        1    0.000    0.000    0.000    0.000 c:\Virtual_Environments\theeng\lib\site-packages\plotly\graph_objs\_carpet.py:1(<module>)
        1    0.000    0.000    0.000    0.000 c:\Virtual_Environments\theeng\lib\site-packages\plotly\validators\carpet\aaxis\_gridcolor.py:5(__init__)
        1    0.000    0.000    0.000    0.000 c:\Virtual_Environments\theeng\lib\site-packages\plotly\validators\carpet\_baxis.py:5(__init__)
        1    0.000    0.000    0.000    0.000 c:\Virtual_Environments\theeng\lib\site-packages\plotly\validators\carpet\baxis\_linecolor.py:5(__init__)
        1    0.000    0.000    0.000    0.000 c:\Virtual_Environments\theeng\lib\site-packages\plotly\validators\layout\_xaxis.py:5(__init__)
        1    0.000    0.000    0.000    0.000 c:\Virtual_Environments\theeng\lib\site-packages\plotly\graph_objs\_contour.py:1(<module>)
        1    0.000    0.000    0.000    0.000 c:\Virtual_Environments\theeng\lib\site-packages\plotly\graph_objs\contour\_colorbar.py:1(<module>)
        1    0.000    0.000    0.000    0.000 c:\Virtual_Environments\theeng\lib\site-packages\plotly\validators\layout\annotation\_arrowcolor.py:5(__init__)
        1    0.000    0.000    0.000    0.000 c:\Virtual_Environments\theeng\lib\site-packages\plotly\validators\layout\template\data\_scatter3d.py:5(__init__)
        1    0.000    0.000    0.000    0.000 c:\Virtual_Environments\theeng\lib\site-packages\plotly\graph_objs\scatter3d\_line.py:1(<module>)
        1    0.000    0.000    0.000    0.000 c:\Virtual_Environments\theeng\lib\site-packages\plotly\validators\scatter3d\_marker.py:5(__init__)
        1    0.000    0.000    0.000    0.000 c:\Virtual_Environments\theeng\lib\site-packages\plotly\graph_objs\scatter3d\marker\_colorbar.py:1(<module>)
        1    0.000    0.000    0.000    0.000 c:\Virtual_Environments\theeng\lib\site-packages\plotly\graph_objs\scattercarpet\marker\_colorbar.py:1(<module>)
        1    0.000    0.000    0.000    0.000 c:\Virtual_Environments\theeng\lib\site-packages\plotly\validators\layout\template\data\_scattergl.py:5(__init__)
        1    0.000    0.000    0.000    0.000 c:\Virtual_Environments\theeng\lib\site-packages\plotly\validators\scattergl\marker\_colorbar.py:5(__init__)
        1    0.000    0.000    0.000    0.000 c:\Virtual_Environments\theeng\lib\site-packages\plotly\validators\scattermapbox\marker\_colorbar.py:5(__init__)
        1    0.000    0.000    0.000    0.000 c:\Virtual_Environments\theeng\lib\site-packages\plotly\graph_objs\scattermapbox\marker\_colorbar.py:1(<module>)
        1    0.000    0.000    0.000    0.000 c:\Virtual_Environments\theeng\lib\site-packages\plotly\graph_objs\scatterpolargl\marker\_colorbar.py:1(<module>)
        1    0.000    0.000    0.000    0.000 c:\Virtual_Environments\theeng\lib\site-packages\plotly\validators\scatterternary\_marker.py:5(__init__)
        1    0.000    0.000    0.000    0.000 c:\Virtual_Environments\theeng\lib\site-packages\plotly\graph_objs\surface\_colorbar.py:1(<module>)
        1    0.000    0.000    0.000    0.000 c:\Virtual_Environments\theeng\lib\site-packages\plotly\graph_objs\table\_cells.py:1(<module>)
        1    0.000    0.000    0.000    0.000 c:\Virtual_Environments\theeng\lib\site-packages\plotly\validators\table\cells\_line.py:5(__init__)
        1    0.000    0.000    0.000    0.000 c:\Virtual_Environments\theeng\lib\site-packages\plotly\validators\table\_header.py:5(__init__)
        1    0.000    0.000    0.000    0.000 c:\Virtual_Environments\theeng\lib\site-packages\plotly\validators\table\header\_line.py:5(__init__)
        1    0.000    0.000    0.000    0.000 c:\Virtual_Environments\theeng\lib\site-packages\plotly\graph_objs\layout\coloraxis\_colorbar.py:1(<module>)
        1    0.000    0.000    0.000    0.000 c:\Virtual_Environments\theeng\lib\site-packages\plotly\validators\layout\colorscale\_sequentialminus.py:5(__init__)
        1    0.000    0.000    0.000    0.000 c:\Virtual_Environments\theeng\lib\site-packages\plotly\validators\layout\geo\_landcolor.py:5(__init__)
        1    0.000    0.000    0.000    0.000 c:\Virtual_Environments\theeng\lib\site-packages\plotly\validators\layout\geo\_subunitcolor.py:5(__init__)
        1    0.000    0.000    0.000    0.000 c:\Virtual_Environments\theeng\lib\site-packages\plotly\validators\layout\polar\angularaxis\_linecolor.py:5(__init__)
        1    0.000    0.000    0.000    0.000 c:\Virtual_Environments\theeng\lib\site-packages\plotly\validators\layout\scene\xaxis\_backgroundcolor.py:5(__init__)
        1    0.000    0.000    0.000    0.000 c:\Virtual_Environments\theeng\lib\site-packages\plotly\validators\layout\scene\xaxis\_linecolor.py:5(__init__)
        1    0.000    0.000    0.000    0.000 c:\Virtual_Environments\theeng\lib\site-packages\plotly\graph_objs\layout\scene\_yaxis.py:1(<module>)
        1    0.000    0.000    0.000    0.000 c:\Virtual_Environments\theeng\lib\site-packages\plotly\validators\layout\scene\yaxis\_linecolor.py:5(__init__)
        1    0.000    0.000    0.000    0.000 c:\Virtual_Environments\theeng\lib\site-packages\plotly\validators\layout\scene\zaxis\_gridcolor.py:5(__init__)
        1    0.000    0.000    0.000    0.000 c:\Virtual_Environments\theeng\lib\site-packages\plotly\validators\layout\scene\zaxis\_zerolinecolor.py:5(__init__)
        1    0.000    0.000    0.000    0.000 c:\Virtual_Environments\theeng\lib\site-packages\plotly\graph_objs\layout\ternary\_caxis.py:1(<module>)
        1    0.000    0.000    0.000    0.000 c:\Virtual_Environments\theeng\lib\site-packages\plotly\validators\layout\xaxis\_linecolor.py:5(__init__)
        1    0.000    0.000    0.000    0.000 c:\Virtual_Environments\theeng\lib\site-packages\plotly\validators\layout\xaxis\_zerolinecolor.py:5(__init__)
        1    0.000    0.000    0.000    0.000 c:\Virtual_Environments\theeng\lib\site-packages\plotly\graph_objs\parcoords\_dimension.py:1(<module>)
        2    0.000    0.000    0.000    0.000 <__array_function__ internals>:177(lexsort)
        1    0.000    0.000    0.000    0.000 c:\Virtual_Environments\theeng\lib\site-packages\pandas\core\dtypes\missing.py:309(_isna_string_dtype)
        8    0.000    0.000    0.000    0.000 c:\Virtual_Environments\theeng\lib\site-packages\pandas\core\indexes\base.py:555(<genexpr>)
        3    0.000    0.000    0.000    0.000 c:\Virtual_Environments\theeng\lib\site-packages\pandas\core\internals\blocks.py:836(_slice)
        1    0.000    0.000    0.000    0.000 c:\Virtual_Environments\theeng\lib\site-packages\pandas\core\internals\managers.py:557(get_numeric_data)
        5    0.000    0.000    0.000    0.000 c:\Virtual_Environments\theeng\lib\site-packages\pandas\io\formats\format.py:639(is_truncated_vertically)
        1    0.000    0.000    0.001    0.001 c:\Virtual_Environments\theeng\lib\site-packages\pymoo\algorithms\base\genetic.py:74(_initialize_infill)
        1    0.000    0.000    0.000    0.000 c:\Virtual_Environments\theeng\lib\site-packages\pymoo\operators\sampling\rnd.py:7(random_by_bounds)
        6    0.000    0.000    0.000    0.000 c:\Virtual_Environments\theeng\lib\site-packages\joblib\logger.py:67(__init__)
        2    0.000    0.000    0.000    0.000 c:\Virtual_Environments\theeng\lib\site-packages\plotly\express\_core.py:545(set_cartesian_axis_opts)
        1    0.000    0.000    0.000    0.000 c:\Virtual_Environments\theeng\lib\site-packages\plotly\graph_objs\_image.py:1(<module>)
        6    0.000    0.000    0.000    0.000 c:\Virtual_Environments\theeng\lib\site-packages\plotly\_subplots.py:443(<genexpr>)
        1    0.000    0.000    0.000    0.000 C:\Engineering Programs\FreeCAD 0.20\Mod\Fem\femobjects\material_common.py:25(<module>)
        1    0.000    0.000    0.000    0.000 c:\Virtual_Environments\theeng\lib\site-packages\plotly\validators\layout\title\_font.py:5(__init__)
        1    0.000    0.000    0.000    0.000 c:\Virtual_Environments\theeng\lib\site-packages\plotly\graph_objs\layout\title\_font.py:1(<module>)
        1    0.000    0.000    0.000    0.000 c:\Virtual_Environments\theeng\lib\site-packages\plotly\graph_objs\layout\_mapbox.py:1(<module>)
        1    0.000    0.000    0.000    0.000 c:\Virtual_Environments\theeng\lib\site-packages\plotly\graph_objs\layout\_smith.py:1(<module>)
        1    0.000    0.000    0.000    0.000 c:\Virtual_Environments\theeng\lib\site-packages\plotly\validators\layout\yaxis\title\_text.py:1(<module>)
        1    0.000    0.000    0.000    0.000 c:\Virtual_Environments\theeng\lib\site-packages\plotly\graph_objs\layout\_activeshape.py:1(<module>)
        1    0.000    0.000    0.000    0.000 c:\Virtual_Environments\theeng\lib\site-packages\plotly\validators\layout\_newshape.py:5(__init__)
        1    0.000    0.000    0.000    0.000 c:\Virtual_Environments\theeng\lib\site-packages\plotly\validators\layout\_annotationdefaults.py:5(__init__)
        1    0.000    0.000    0.000    0.000 c:\Virtual_Environments\theeng\lib\site-packages\plotly\graph_objs\layout\_annotation.py:1(<module>)
        1    0.000    0.000    0.000    0.000 c:\Virtual_Environments\theeng\lib\site-packages\plotly\graph_objs\layout\_activeselection.py:1(<module>)
        1    0.000    0.000    0.000    0.000 c:\Virtual_Environments\theeng\lib\site-packages\plotly\graph_objs\layout\_font.py:1(<module>)
        1    0.000    0.000    0.000    0.000 c:\Virtual_Environments\theeng\lib\site-packages\plotly\validators\layout\_selectionrevision.py:5(__init__)
        1    0.000    0.000    0.000    0.000 c:\Virtual_Environments\theeng\lib\site-packages\plotly\validators\heatmap\_name.py:1(<module>)
        1    0.000    0.000    0.000    0.000 c:\Virtual_Environments\theeng\lib\site-packages\plotly\graph_objs\_barpolar.py:1(<module>)
        1    0.000    0.000    0.000    0.000 c:\Virtual_Environments\theeng\lib\site-packages\plotly\validators\barpolar\marker\_pattern.py:5(__init__)
        1    0.000    0.000    0.000    0.000 c:\Virtual_Environments\theeng\lib\site-packages\plotly\graph_objs\bar\_error_x.py:1(<module>)
        1    0.000    0.000    0.000    0.000 c:\Virtual_Environments\theeng\lib\site-packages\plotly\validators\bar\_error_y.py:5(__init__)
        1    0.000    0.000    0.000    0.000 c:\Virtual_Environments\theeng\lib\site-packages\plotly\validators\bar\marker\_pattern.py:5(__init__)
        1    0.000    0.000    0.000    0.000 c:\Virtual_Environments\theeng\lib\site-packages\plotly\validators\carpet\aaxis\_startlinecolor.py:5(__init__)
        1    0.000    0.000    0.002    0.002 c:\Virtual_Environments\theeng\lib\site-packages\plotly\graph_objs\layout\template\data\_contour.py:1(<module>)
        1    0.000    0.000    0.000    0.000 c:\Virtual_Environments\theeng\lib\site-packages\plotly\validators\scatter\_yaxis.py:5(__init__)
        1    0.000    0.000    0.000    0.000 c:\Virtual_Environments\theeng\lib\site-packages\plotly\graph_objs\_heatmapgl.py:1(<module>)
        1    0.000    0.000    0.000    0.000 c:\Virtual_Environments\theeng\lib\site-packages\plotly\validators\layout\template\data\_histogram2d.py:5(__init__)
        1    0.000    0.000    0.000    0.000 c:\Virtual_Environments\theeng\lib\site-packages\plotly\graph_objs\histogram2d\_colorbar.py:1(<module>)
        1    0.000    0.000    0.000    0.000 c:\Virtual_Environments\theeng\lib\site-packages\plotly\graph_objs\_mesh3d.py:1(<module>)
        1    0.000    0.000    0.000    0.000 c:\Virtual_Environments\theeng\lib\site-packages\plotly\validators\layout\_coloraxis.py:5(__init__)
        1    0.000    0.000    0.000    0.000 c:\Virtual_Environments\theeng\lib\site-packages\plotly\graph_objs\layout\_coloraxis.py:1(<module>)
        1    0.000    0.000    0.000    0.000 c:\Virtual_Environments\theeng\lib\site-packages\plotly\graph_objs\layout\_shape.py:1(<module>)
        1    0.000    0.000    0.000    0.000 c:\Virtual_Environments\theeng\lib\site-packages\plotly\graph_objs\parcoords\line\_colorbar.py:1(<module>)
        1    0.000    0.000    0.000    0.000 c:\Virtual_Environments\theeng\lib\site-packages\plotly\graph_objs\_scatter3d.py:1(<module>)
        1    0.000    0.000    0.000    0.000 c:\Virtual_Environments\theeng\lib\site-packages\plotly\graph_objs\scatter3d\line\_colorbar.py:1(<module>)
        1    0.000    0.000    0.000    0.000 c:\Virtual_Environments\theeng\lib\site-packages\plotly\validators\scattercarpet\_marker.py:5(__init__)
        1    0.000    0.000    0.000    0.000 c:\Virtual_Environments\theeng\lib\site-packages\plotly\graph_objs\_scattergeo.py:1(<module>)
        1    0.000    0.000    0.001    0.001 c:\Virtual_Environments\theeng\lib\site-packages\plotly\graph_objs\layout\template\data\_scatterpolargl.py:1(<module>)
        1    0.000    0.000    0.000    0.000 c:\Virtual_Environments\theeng\lib\site-packages\plotly\graph_objs\scatter\_fillpattern.py:1(<module>)
        1    0.000    0.000    0.000    0.000 c:\Virtual_Environments\theeng\lib\site-packages\plotly\validators\layout\template\data\_table.py:5(__init__)
        1    0.000    0.000    0.000    0.000 c:\Virtual_Environments\theeng\lib\site-packages\plotly\graph_objs\_table.py:1(<module>)
        1    0.000    0.000    0.000    0.000 c:\Virtual_Environments\theeng\lib\site-packages\plotly\validators\layout\polar\_angularaxis.py:5(__init__)
        1    0.000    0.000    0.000    0.000 c:\Virtual_Environments\theeng\lib\site-packages\plotly\validators\layout\polar\radialaxis\_linecolor.py:5(__init__)
        1    0.000    0.000    0.000    0.000 c:\Virtual_Environments\theeng\lib\site-packages\plotly\graph_objs\layout\ternary\_aaxis.py:1(<module>)
        1    0.000    0.000    0.000    0.000 c:\Virtual_Environments\theeng\lib\site-packages\plotly\validators\layout\ternary\aaxis\_gridcolor.py:5(__init__)
        1    0.000    0.000    0.000    0.000 c:\Virtual_Environments\theeng\lib\site-packages\plotly\validators\layout\ternary\baxis\_linecolor.py:5(__init__)
        1    0.000    0.000    0.000    0.000 c:\Virtual_Environments\theeng\lib\site-packages\plotly\validators\layout\yaxis\_gridcolor.py:5(__init__)
        1    0.000    0.000    0.000    0.000 c:\Virtual_Environments\theeng\lib\site-packages\plotly\validators\layout\yaxis\_zerolinewidth.py:5(__init__)
        2    0.000    0.000    0.000    0.000 C:\Python38\lib\linecache.py:82(updatecache)
        2    0.000    0.000    0.000    0.000 c:\Virtual_Environments\theeng\lib\site-packages\pandas\core\dtypes\common.py:1097(is_datetimelike_v_numeric)
        2    0.000    0.000    0.000    0.000 c:\Virtual_Environments\theeng\lib\site-packages\pandas\core\internals\concat.py:199(<listcomp>)
        4    0.000    0.000    0.000    0.000 c:\Virtual_Environments\theeng\lib\site-packages\pandas\core\internals\construction.py:588(_homogenize)
        1    0.000    0.000    0.000    0.000 c:\Virtual_Environments\theeng\lib\site-packages\pandas\core\groupby\grouper.py:931(_convert_grouper)
        3    0.000    0.000    0.000    0.000 c:\Virtual_Environments\theeng\lib\site-packages\theeng\core\optimizer.py:83(<listcomp>)
        1    0.000    0.000    0.000    0.000 c:\Virtual_Environments\theeng\lib\site-packages\scipy\stats\_qmc.py:65(check_random_state)
        6    0.000    0.000    0.000    0.000 c:\Virtual_Environments\theeng\lib\site-packages\plotly\_subplots.py:533(_check_hv_spacing)
        6    0.000    0.000    0.000    0.000 c:\Virtual_Environments\theeng\lib\site-packages\plotly\basedatatypes.py:383(_generator)
        1    0.000    0.000    0.003    0.003 c:\Virtual_Environments\theeng\lib\site-packages\plotly\basedatatypes.py:1990(add_trace)
        2    0.000    0.000    0.000    0.000 c:\Virtual_Environments\theeng\lib\site-packages\plotly\basedatatypes.py:2840(frames)
        1    0.000    0.000    0.000    0.000 c:\Virtual_Environments\theeng\lib\site-packages\plotly\validators\layout\_colorway.py:5(__init__)
        1    0.000    0.000    0.000    0.000 c:\Virtual_Environments\theeng\lib\site-packages\plotly\validators\layout\template\_data.py:5(__init__)
        1    0.000    0.000    0.000    0.000 c:\Virtual_Environments\theeng\lib\site-packages\plotly\graph_objs\_sunburst.py:1(<module>)
        1    0.000    0.000    0.000    0.000 c:\Virtual_Environments\theeng\lib\site-packages\plotly\graph_objs\layout\_title.py:1(<module>)
        1    0.000    0.000    0.000    0.000 c:\Virtual_Environments\theeng\lib\site-packages\plotly\graph_objs\layout\_geo.py:1(<module>)
        1    0.000    0.000    0.000    0.000 c:\Virtual_Environments\theeng\lib\site-packages\plotly\graph_objs\layout\_selection.py:1(<module>)
        1    0.000    0.000    0.000    0.000 c:\Virtual_Environments\theeng\lib\site-packages\plotly\graph_objs\layout\_ternary.py:1(<module>)
        1    0.000    0.000    0.000    0.000 c:\Virtual_Environments\theeng\lib\site-packages\plotly\validators\layout\_newselection.py:5(__init__)
        1    0.000    0.000    0.000    0.000 c:\Virtual_Environments\theeng\lib\site-packages\plotly\graph_objs\bar\_error_y.py:1(<module>)
        1    0.000    0.000    0.000    0.000 c:\Virtual_Environments\theeng\lib\site-packages\plotly\graph_objs\bar\_marker.py:1(<module>)
        1    0.000    0.000    0.000    0.000 c:\Virtual_Environments\theeng\lib\site-packages\plotly\graph_objs\layout\template\_data.py:1(<module>)
        1    0.000    0.000    0.000    0.000 c:\Virtual_Environments\theeng\lib\site-packages\plotly\validators\carpet\baxis\_gridcolor.py:5(__init__)
        1    0.000    0.000    0.000    0.000 c:\Virtual_Environments\theeng\lib\site-packages\plotly\graph_objs\_scatterpolar.py:1(<module>)
        1    0.000    0.000    0.000    0.000 c:\Virtual_Environments\theeng\lib\site-packages\plotly\graph_objs\contourcarpet\_colorbar.py:1(<module>)
        1    0.000    0.000    0.002    0.002 c:\Virtual_Environments\theeng\lib\site-packages\plotly\graph_objs\layout\template\data\_heatmap.py:1(<module>)
        1    0.000    0.000    0.000    0.000 c:\Virtual_Environments\theeng\lib\site-packages\plotly\validators\parcoords\_domain.py:1(<module>)
        1    0.000    0.000    0.002    0.002 c:\Virtual_Environments\theeng\lib\site-packages\plotly\graph_objs\layout\template\data\_mesh3d.py:1(<module>)
        1    0.000    0.000    0.000    0.000 c:\Virtual_Environments\theeng\lib\site-packages\plotly\graph_objs\parcoords\_line.py:1(<module>)
        1    0.000    0.000    0.000    0.000 c:\Virtual_Environments\theeng\lib\site-packages\plotly\graph_objs\scattergeo\_marker.py:1(<module>)
        1    0.000    0.000    0.000    0.000 c:\Virtual_Environments\theeng\lib\site-packages\plotly\graph_objs\scattergl\_marker.py:1(<module>)
        1    0.000    0.000    0.000    0.000 c:\Virtual_Environments\theeng\lib\site-packages\plotly\graph_objs\scattermapbox\_marker.py:1(<module>)
        1    0.000    0.000    0.000    0.000 c:\Virtual_Environments\theeng\lib\site-packages\plotly\graph_objs\scatterpolargl\_marker.py:1(<module>)
        1    0.000    0.000    0.000    0.000 c:\Virtual_Environments\theeng\lib\site-packages\plotly\graph_objs\scatterpolar\marker\_colorbar.py:1(<module>)
        1    0.000    0.000    0.000    0.000 c:\Virtual_Environments\theeng\lib\site-packages\plotly\validators\table\cells\_fill.py:5(__init__)
        1    0.000    0.000    0.000    0.000 c:\Virtual_Environments\theeng\lib\site-packages\plotly\graph_objs\table\cells\_fill.py:1(<module>)
        1    0.000    0.000    0.000    0.000 c:\Virtual_Environments\theeng\lib\site-packages\plotly\graph_objs\table\header\_line.py:1(<module>)
        1    0.000    0.000    0.000    0.000 c:\Virtual_Environments\theeng\lib\site-packages\plotly\validators\layout\geo\_bgcolor.py:1(<module>)
        1    0.000    0.000    0.000    0.000 c:\Virtual_Environments\theeng\lib\site-packages\plotly\validators\layout\polar\angularaxis\_gridcolor.py:5(__init__)
        1    0.000    0.000    0.000    0.000 c:\Virtual_Environments\theeng\lib\site-packages\plotly\graph_objs\layout\polar\_radialaxis.py:1(<module>)
        1    0.000    0.000    0.000    0.000 c:\Virtual_Environments\theeng\lib\site-packages\plotly\validators\layout\polar\radialaxis\_gridcolor.py:5(__init__)
        1    0.000    0.000    0.000    0.000 c:\Virtual_Environments\theeng\lib\site-packages\plotly\validators\layout\scene\zaxis\_linecolor.py:5(__init__)
        1    0.000    0.000    0.000    0.000 c:\Virtual_Environments\theeng\lib\site-packages\plotly\validators\layout\scene\zaxis\_showbackground.py:5(__init__)
        1    0.000    0.000    0.000    0.000 c:\Virtual_Environments\theeng\lib\site-packages\plotly\validators\layout\ternary\caxis\_gridcolor.py:5(__init__)
        1    0.000    0.000    0.000    0.000 c:\Virtual_Environments\theeng\lib\site-packages\plotly\validators\layout\ternary\caxis\_linecolor.py:5(__init__)
        1    0.000    0.000    0.000    0.000 c:\Virtual_Environments\theeng\lib\site-packages\plotly\validators\layout\xaxis\_gridcolor.py:5(__init__)
        1    0.000    0.000    0.000    0.000 c:\Virtual_Environments\theeng\lib\site-packages\plotly\graph_objs\layout\xaxis\_title.py:1(<module>)
        1    0.000    0.000    0.000    0.000 c:\Virtual_Environments\theeng\lib\site-packages\pandas\core\groupby\grouper.py:658(_codes_and_uniques)
        1    0.000    0.000    0.000    0.000 c:\Virtual_Environments\theeng\lib\site-packages\theeng\core\optimizer.py:15(__init__)
        1    0.000    0.000    0.000    0.000 c:\Virtual_Environments\theeng\lib\site-packages\typing_extensions.py:126(_collect_type_vars)
        2    0.000    0.000    0.000    0.000 c:\Virtual_Environments\theeng\lib\site-packages\plotly\express\_core.py:520(<listcomp>)
        3    0.000    0.000    0.000    0.000 c:\Virtual_Environments\theeng\lib\site-packages\plotly\express\_core.py:931(<listcomp>)
        1    0.000    0.000    0.000    0.000 C:\Engineering Programs\FreeCAD 0.20\Mod\Fem\femsolver\calculix\write_footer.py:24(<module>)
        1    0.000    0.000    0.000    0.000 C:\Engineering Programs\FreeCAD 0.20\Mod\Fem\femobjects\material_common.py:47(onDocumentRestored)
        1    0.000    0.000    0.000    0.000 c:\Virtual_Environments\theeng\lib\site-packages\pymoo\util\nds\tree_based_non_dominated_sort.py:7(Tree)
        1    0.000    0.000    0.000    0.000 c:\Virtual_Environments\theeng\lib\site-packages\plotly\graph_objs\layout\_updatemenu.py:1(<module>)
        1    0.000    0.000    0.000    0.000 c:\Virtual_Environments\theeng\lib\site-packages\plotly\graph_objs\layout\_uniformtext.py:1(<module>)
        1    0.000    0.000    0.001    0.001 c:\Virtual_Environments\theeng\lib\site-packages\plotly\graph_objs\layout\template\data\_barpolar.py:1(<module>)
        1    0.000    0.000    0.000    0.000 c:\Virtual_Environments\theeng\lib\site-packages\plotly\graph_objs\bar\marker\_line.py:1(<module>)
        1    0.000    0.000    0.000    0.000 c:\Virtual_Environments\theeng\lib\site-packages\plotly\graph_objs\bar\marker\_pattern.py:1(<module>)
        1    0.000    0.000    0.000    0.000 c:\Virtual_Environments\theeng\lib\site-packages\plotly\graph_objs\layout\template\data\_scatter.py:1(<module>)
        1    0.000    0.000    0.000    0.000 c:\Virtual_Environments\theeng\lib\site-packages\plotly\graph_objs\carpet\_baxis.py:1(<module>)
        1    0.000    0.000    0.001    0.001 c:\Virtual_Environments\theeng\lib\site-packages\plotly\graph_objs\layout\template\data\_heatmapgl.py:1(<module>)
        1    0.000    0.000    0.000    0.000 c:\Virtual_Environments\theeng\lib\site-packages\plotly\graph_objs\heatmap\_colorbar.py:1(<module>)
        1    0.000    0.000    0.000    0.000 c:\Virtual_Environments\theeng\lib\site-packages\plotly\graph_objs\layout\_slider.py:1(<module>)
        1    0.000    0.000    0.001    0.001 c:\Virtual_Environments\theeng\lib\site-packages\plotly\graph_objs\layout\template\data\_scatter3d.py:1(<module>)
        1    0.000    0.000    0.001    0.001 c:\Virtual_Environments\theeng\lib\site-packages\plotly\graph_objs\layout\template\data\_scattercarpet.py:1(<module>)
        1    0.000    0.000    0.000    0.000 c:\Virtual_Environments\theeng\lib\site-packages\plotly\graph_objs\_scattercarpet.py:1(<module>)
        1    0.000    0.000    0.000    0.000 c:\Virtual_Environments\theeng\lib\site-packages\plotly\graph_objs\scattercarpet\_marker.py:1(<module>)
        1    0.000    0.000    0.000    0.000 c:\Virtual_Environments\theeng\lib\site-packages\plotly\graph_objs\layout\template\data\_scattergl.py:1(<module>)
        1    0.000    0.000    0.001    0.001 c:\Virtual_Environments\theeng\lib\site-packages\plotly\graph_objs\layout\template\data\_scattermapbox.py:1(<module>)
        1    0.000    0.000    0.000    0.000 c:\Virtual_Environments\theeng\lib\site-packages\plotly\graph_objs\_scattermapbox.py:1(<module>)
        1    0.000    0.000    0.000    0.000 c:\Virtual_Environments\theeng\lib\site-packages\plotly\validators\scatter\_fillpattern.py:1(<module>)
        1    0.000    0.000    0.001    0.001 c:\Virtual_Environments\theeng\lib\site-packages\plotly\graph_objs\layout\template\data\_scatterternary.py:1(<module>)
        1    0.000    0.000    0.000    0.000 c:\Virtual_Environments\theeng\lib\site-packages\plotly\graph_objs\table\cells\_line.py:1(<module>)
        1    0.000    0.000    0.001    0.001 <__array_function__ internals>:177(delete)
        1    0.000    0.000    0.000    0.000 c:\Virtual_Environments\theeng\lib\site-packages\pandas\core\strings\accessor.py:197(_validate)
        2    0.000    0.000    0.000    0.000 c:\Virtual_Environments\theeng\lib\site-packages\pandas\core\generic.py:1726(<genexpr>)
        1    0.000    0.000    0.000    0.000 c:\Virtual_Environments\theeng\lib\site-packages\scipy\linalg\lapack.py:881(get_lapack_funcs)
        1    0.000    0.000    0.000    0.000 c:\Virtual_Environments\theeng\lib\site-packages\theeng\core\sampler.py:14(__init__)
        1    0.000    0.000    0.000    0.000 c:\Virtual_Environments\theeng\lib\site-packages\theeng\algorithms\rankers.py:71(<listcomp>)
        3    0.000    0.000    0.000    0.000 {pandas._libs.lib.dtypes_all_equal}
        6    0.000    0.000    0.000    0.000 c:\Virtual_Environments\theeng\lib\site-packages\sklearn\preprocessing\_data.py:786(_reset)
        1    0.000    0.000    0.000    0.000 c:\Virtual_Environments\theeng\lib\site-packages\_plotly_utils\basevalidators.py:1619(<listcomp>)
        3    0.000    0.000    0.000    0.000 c:\Virtual_Environments\theeng\lib\site-packages\plotly\express\_core.py:751(configure_animation_controls)
        3    0.000    0.000    0.000    0.000 c:\Virtual_Environments\theeng\lib\site-packages\plotly\basedatatypes.py:1241(<lambda>)
        8    0.000    0.000    0.000    0.000 c:\Virtual_Environments\theeng\lib\site-packages\plotly\basedatatypes.py:1438(<lambda>)
        4    0.000    0.000    0.000    0.000 c:\Virtual_Environments\theeng\lib\site-packages\pymoo\util\ref_dirs\reduction.py:21(<listcomp>)
        1    0.000    0.000    0.000    0.000 c:\Virtual_Environments\theeng\lib\site-packages\pymoo\util\ref_dirs\misc.py:1(<module>)
        1    0.000    0.000    0.000    0.000 c:\Virtual_Environments\theeng\lib\site-packages\pymoo\util\ref_dirs\optimizer.py:6(__init__)
        1    0.000    0.000    0.000    0.000 c:\Virtual_Environments\theeng\lib\site-packages\plotly\graph_objs\layout\_grid.py:1(<module>)
        1    0.000    0.000    0.000    0.000 c:\Virtual_Environments\theeng\lib\site-packages\plotly\graph_objs\layout\_newselection.py:1(<module>)
        1    0.000    0.000    0.000    0.000 c:\Virtual_Environments\theeng\lib\site-packages\plotly\graph_objs\layout\_polar.py:1(<module>)
        1    0.000    0.000    0.000    0.000 c:\Virtual_Environments\theeng\lib\site-packages\plotly\graph_objs\layout\template\data\_bar.py:1(<module>)
        1    0.000    0.000    0.000    0.000 c:\Virtual_Environments\theeng\lib\site-packages\plotly\graph_objs\layout\template\data\_choropleth.py:1(<module>)
        1    0.000    0.000    0.000    0.000 c:\Virtual_Environments\theeng\lib\site-packages\plotly\graph_objs\choropleth\_colorbar.py:1(<module>)
        1    0.000    0.000    0.000    0.000 c:\Virtual_Environments\theeng\lib\site-packages\plotly\validators\_data.py:1(<module>)
        1    0.000    0.000    0.000    0.000 c:\Virtual_Environments\theeng\lib\site-packages\plotly\validators\heatmapgl\_colorbar.py:1(<module>)
        1    0.000    0.000    0.000    0.000 c:\Virtual_Environments\theeng\lib\site-packages\plotly\graph_objs\layout\template\data\_histogram.py:1(<module>)
        1    0.000    0.000    0.000    0.000 c:\Virtual_Environments\theeng\lib\site-packages\plotly\validators\layout\annotation\_arrowhead.py:1(<module>)
        1    0.000    0.000    0.000    0.000 c:\Virtual_Environments\theeng\lib\site-packages\plotly\validators\parcoords\line\_colorbar.py:1(<module>)
        1    0.000    0.000    0.000    0.000 c:\Virtual_Environments\theeng\lib\site-packages\plotly\graph_objs\scattergeo\marker\_colorbar.py:1(<module>)
        1    0.000    0.000    0.000    0.000 c:\Virtual_Environments\theeng\lib\site-packages\plotly\graph_objs\scattergl\marker\_colorbar.py:1(<module>)
        1    0.000    0.000    0.000    0.000 c:\Virtual_Environments\theeng\lib\site-packages\plotly\graph_objs\scatterpolar\_marker.py:1(<module>)
        1    0.000    0.000    0.001    0.001 c:\Virtual_Environments\theeng\lib\site-packages\plotly\graph_objs\layout\template\data\_table.py:1(<module>)
        1    0.000    0.000    0.000    0.000 c:\Virtual_Environments\theeng\lib\site-packages\plotly\io\_json.py:15(JsonConfig)
        1    0.000    0.000    0.000    0.000 c:\Virtual_Environments\theeng\lib\site-packages\plotly\graph_objs\table\_header.py:1(<module>)
        1    0.000    0.000    0.000    0.000 c:\Virtual_Environments\theeng\lib\site-packages\plotly\validators\layout\polar\_bgcolor.py:5(__init__)
        1    0.000    0.000    0.000    0.000 c:\Virtual_Environments\theeng\lib\site-packages\plotly\graph_objs\layout\shape\_line.py:1(<module>)
        1    0.000    0.000    0.000    0.000 c:\Virtual_Environments\theeng\lib\site-packages\plotly\graph_objs\layout\yaxis\_title.py:1(<module>)
        1    0.000    0.000    0.000    0.000 c:\Virtual_Environments\theeng\lib\site-packages\plotly\validators\layout\yaxis\_zerolinecolor.py:5(__init__)
        1    0.000    0.000    0.000    0.000 c:\Virtual_Environments\theeng\lib\site-packages\plotly\validators\parcoords\domain\_x.py:1(<module>)
        4    0.000    0.000    0.000    0.000 c:\Virtual_Environments\theeng\lib\site-packages\pandas\core\ops\dispatch.py:13(should_extension_dispatch)
        3    0.000    0.000    0.000    0.000 c:\Virtual_Environments\theeng\lib\site-packages\pandas\core\base.py:313(shape)
        2    0.000    0.000    0.000    0.000 c:\Virtual_Environments\theeng\lib\site-packages\pandas\io\formats\format.py:1610(_format_strings)
        1    0.000    0.000    0.000    0.000 c:\Virtual_Environments\theeng\lib\site-packages\sklearn\model_selection\_split.py:450(__init__)
        1    0.000    0.000    0.000    0.000 c:\Virtual_Environments\theeng\lib\site-packages\_plotly_utils\basevalidators.py:2243(__init__)
        3    0.000    0.000    0.000    0.000 c:\Virtual_Environments\theeng\lib\site-packages\plotly\_subplots.py:662(<listcomp>)
        3    0.000    0.000    0.000    0.000 c:\Virtual_Environments\theeng\lib\site-packages\plotly\_subplots.py:665(<listcomp>)
        2    0.000    0.000    0.000    0.000 c:\Virtual_Environments\theeng\lib\site-packages\plotly\basedatatypes.py:3943(_index_is)
        1    0.000    0.000    0.000    0.000 C:\Engineering Programs\FreeCAD 0.20\Mod\Fem\femsolver\calculix\solver.py:52(Proxy)
        1    0.000    0.000    0.000    0.000 C:\Engineering Programs\FreeCAD 0.20\Mod\Fem\femtools\geomtools.py:24(<module>)
        1    0.000    0.000    0.000    0.000 c:\Virtual_Environments\theeng\lib\site-packages\plotly\validators\layout\colorscale\_sequential.py:1(<module>)
        1    0.000    0.000    0.000    0.000 c:\Virtual_Environments\theeng\lib\site-packages\plotly\validators\layout\template\_layout.py:1(<module>)
        1    0.000    0.000    0.000    0.000 c:\Virtual_Environments\theeng\lib\site-packages\plotly\graph_objs\barpolar\marker\_line.py:1(<module>)
        1    0.000    0.000    0.000    0.000 c:\Virtual_Environments\theeng\lib\site-packages\plotly\graph_objs\barpolar\marker\_pattern.py:1(<module>)
        1    0.000    0.000    0.001    0.001 c:\Virtual_Environments\theeng\lib\site-packages\plotly\graph_objs\layout\template\data\_carpet.py:1(<module>)
        1    0.000    0.000    0.000    0.000 c:\Virtual_Environments\theeng\lib\site-packages\plotly\validators\carpet\aaxis\_endlinecolor.py:1(<module>)
        1    0.000    0.000    0.000    0.000 c:\Virtual_Environments\theeng\lib\site-packages\plotly\validators\carpet\baxis\_endlinecolor.py:1(<module>)
        1    0.000    0.000    0.000    0.000 c:\Virtual_Environments\theeng\lib\site-packages\plotly\validators\scatter\_x.py:1(<module>)
        1    0.000    0.000    0.000    0.000 c:\Virtual_Environments\theeng\lib\site-packages\plotly\validators\scatter\_name.py:1(<module>)
        1    0.000    0.000    0.000    0.000 c:\Virtual_Environments\theeng\lib\site-packages\plotly\graph_objs\layout\template\data\_histogram2d.py:1(<module>)
        1    0.000    0.000    0.000    0.000 c:\Virtual_Environments\theeng\lib\site-packages\plotly\validators\histogram\_marker.py:1(<module>)
        1    0.000    0.000    0.000    0.000 c:\Virtual_Environments\theeng\lib\site-packages\plotly\graph_objs\mesh3d\_colorbar.py:1(<module>)
        1    0.000    0.000    0.000    0.000 c:\Virtual_Environments\theeng\lib\site-packages\plotly\validators\layout\_metasrc.py:1(<module>)
        1    0.000    0.000    0.000    0.000 c:\Virtual_Environments\theeng\lib\site-packages\plotly\validators\layout\annotation\_arrowcolor.py:1(<module>)
        1    0.000    0.000    0.000    0.000 c:\Virtual_Environments\theeng\lib\site-packages\plotly\graph_objs\layout\template\data\_pie.py:1(<module>)
        1    0.000    0.000    0.001    0.001 c:\Virtual_Environments\theeng\lib\site-packages\plotly\graph_objs\layout\template\data\_scattergeo.py:1(<module>)
        1    0.000    0.000    0.000    0.000 c:\Virtual_Environments\theeng\lib\site-packages\plotly\graph_objs\layout\template\data\_scatterpolar.py:1(<module>)
        1    0.000    0.000    0.002    0.002 c:\Virtual_Environments\theeng\lib\site-packages\plotly\graph_objs\layout\template\data\_surface.py:1(<module>)
        1    0.000    0.000    0.000    0.000 c:\Virtual_Environments\theeng\lib\site-packages\plotly\validators\heatmap\_coloraxis.py:1(<module>)
        1    0.000    0.000    0.000    0.000 c:\Virtual_Environments\theeng\lib\site-packages\plotly\validators\heatmap\_y.py:1(<module>)
        1    0.000    0.000    0.000    0.000 c:\Virtual_Environments\theeng\lib\site-packages\plotly\validators\layout\coloraxis\_cmid.py:1(<module>)
       10    0.000    0.000    0.000    0.000 C:\Python38\lib\_collections_abc.py:302(__subclasshook__)
        1    0.000    0.000    0.000    0.000 c:\Virtual_Environments\theeng\lib\site-packages\pandas\core\arraylike.py:124(__truediv__)
        2    0.000    0.000    0.000    0.000 c:\Virtual_Environments\theeng\lib\site-packages\pandas\core\indexes\range.py:453(_view)
        1    0.000    0.000    0.000    0.000 c:\Virtual_Environments\theeng\lib\site-packages\pandas\core\internals\blocks.py:1908(array_values)
        8    0.000    0.000    0.000    0.000 c:\Virtual_Environments\theeng\lib\site-packages\pandas\core\internals\managers.py:287(<listcomp>)
        2    0.000    0.000    0.000    0.000 c:\Virtual_Environments\theeng\lib\site-packages\pandas\io\formats\format.py:659(show_col_idx_names)
        2    0.000    0.000    0.000    0.000 c:\Virtual_Environments\theeng\lib\site-packages\pandas\io\formats\format.py:1216(get_buffer)
        3    0.000    0.000    0.000    0.000 c:\Virtual_Environments\theeng\lib\site-packages\plotly\_subplots.py:39(<dictcomp>)
        1    0.000    0.000    0.002    0.002 c:\Virtual_Environments\theeng\lib\site-packages\plotly\graph_objs\_figure.py:682(update_traces)
        1    0.000    0.000    0.000    0.000 C:\Engineering Programs\FreeCAD 0.20\Mod\Fem\femsolver\calculix\write_femelement_matgeosets.py:24(<module>)
        1    0.000    0.000    0.000    0.000 C:\Engineering Programs\FreeCAD 0.20\Mod\Fem\femsolver\calculix\write_step_equation.py:24(<module>)
        1    0.000    0.000    0.000    0.000 C:\Engineering Programs\FreeCAD 0.20\Mod\Fem\femtools\errors.py:25(<module>)
        1    0.000    0.000    0.000    0.000 c:\Virtual_Environments\theeng\lib\site-packages\plotly\validators\layout\xaxis\_anchor.py:1(<module>)
        1    0.000    0.000    0.000    0.000 c:\Virtual_Environments\theeng\lib\site-packages\plotly\validators\layout\xaxis\_domain.py:1(<module>)
        1    0.000    0.000    0.000    0.000 c:\Virtual_Environments\theeng\lib\site-packages\plotly\validators\scatter\_marker.py:1(<module>)
        1    0.000    0.000    0.000    0.000 c:\Virtual_Environments\theeng\lib\site-packages\plotly\validators\layout\legend\_title.py:1(<module>)
        1    0.000    0.000    0.000    0.000 c:\Virtual_Environments\theeng\lib\site-packages\plotly\validators\heatmap\_x.py:1(<module>)
        1    0.000    0.000    0.000    0.000 c:\Virtual_Environments\theeng\lib\site-packages\plotly\validators\layout\margin\_t.py:1(<module>)
        1    0.000    0.000    0.000    0.000 c:\Virtual_Environments\theeng\lib\site-packages\plotly\validators\scatter\_xaxis.py:1(<module>)
        1    0.000    0.000    0.000    0.000 c:\Virtual_Environments\theeng\lib\site-packages\plotly\validators\scatter\_yaxis.py:1(<module>)
        1    0.000    0.000    0.000    0.000 c:\Virtual_Environments\theeng\lib\site-packages\plotly\validators\scatter3d\line\_colorbar.py:1(<module>)
        1    0.000    0.000    0.000    0.000 c:\Virtual_Environments\theeng\lib\site-packages\plotly\validators\scatter3d\marker\colorbar\_ticks.py:1(<module>)
        1    0.000    0.000    0.000    0.000 c:\Virtual_Environments\theeng\lib\site-packages\plotly\validators\scatter\fillpattern\_fillmode.py:1(<module>)
        1    0.000    0.000    0.000    0.000 c:\Virtual_Environments\theeng\lib\site-packages\plotly\validators\table\header\fill\_color.py:1(<module>)
        1    0.000    0.000    0.000    0.000 c:\Virtual_Environments\theeng\lib\site-packages\plotly\validators\layout\scene\_xaxis.py:1(<module>)
        1    0.000    0.000    0.000    0.000 c:\Virtual_Environments\theeng\lib\site-packages\plotly\validators\layout\yaxis\_ticks.py:1(<module>)
        1    0.000    0.000    0.000    0.000 c:\Virtual_Environments\theeng\lib\site-packages\plotly\validators\parcoords\dimension\_label.py:1(<module>)
        1    0.000    0.000    0.000    0.000 c:\Virtual_Environments\theeng\lib\site-packages\plotly\validators\parcoords\domain\_y.py:1(<module>)
        1    0.000    0.000    0.000    0.000 c:\Virtual_Environments\theeng\lib\site-packages\pandas\io\formats\format.py:773(_is_screen_narrow)
        1    0.000    0.000    0.000    0.000 c:\Virtual_Environments\theeng\lib\site-packages\pandas\core\groupby\ops.py:742(__init__)
        3    0.000    0.000    0.000    0.000 c:\Virtual_Environments\theeng\lib\site-packages\theeng\core\optimizer.py:79(<dictcomp>)
        1    0.000    0.000    0.000    0.000 c:\Virtual_Environments\theeng\lib\site-packages\pymoo\algorithms\moo\nsga3.py:103(_setup)
        1    0.000    0.000    0.000    0.000 c:\Virtual_Environments\theeng\lib\site-packages\pymoo\core\duplicate.py:58(__init__)
        3    0.000    0.000    0.000    0.000 c:\Virtual_Environments\theeng\lib\site-packages\_plotly_utils\basevalidators.py:1493(<listcomp>)
        4    0.000    0.000    0.000    0.000 c:\Virtual_Environments\theeng\lib\site-packages\_plotly_utils\basevalidators.py:1868(<listcomp>)
        1    0.000    0.000    0.000    0.000 c:\Virtual_Environments\theeng\lib\site-packages\plotly\basedatatypes.py:1093(select_traces)
        1    0.000    0.000    0.000    0.000 c:\Virtual_Environments\theeng\lib\site-packages\plotly\validators\layout\_colorway.py:1(<module>)
        1    0.000    0.000    0.000    0.000 c:\Virtual_Environments\theeng\lib\site-packages\plotly\validators\layout\_template.py:1(<module>)
        1    0.000    0.000    0.000    0.000 c:\Virtual_Environments\theeng\lib\site-packages\plotly\validators\scatter\marker\_symbol.py:1(<module>)
        1    0.000    0.000    0.000    0.000 c:\Virtual_Environments\theeng\lib\site-packages\plotly\validators\layout\_title.py:1(<module>)
        1    0.000    0.000    0.000    0.000 c:\Virtual_Environments\theeng\lib\site-packages\plotly\validators\layout\title\_font.py:1(<module>)
        1    0.000    0.000    0.000    0.000 c:\Virtual_Environments\theeng\lib\site-packages\plotly\validators\layout\_waterfallgroupgap.py:1(<module>)
        1    0.000    0.000    0.000    0.000 c:\Virtual_Environments\theeng\lib\site-packages\plotly\validators\layout\_bargap.py:1(<module>)
        1    0.000    0.000    0.000    0.000 c:\Virtual_Environments\theeng\lib\site-packages\plotly\validators\layout\_paper_bgcolor.py:1(<module>)
        1    0.000    0.000    0.000    0.000 c:\Virtual_Environments\theeng\lib\site-packages\plotly\validators\layout\_ternary.py:1(<module>)
        1    0.000    0.000    0.000    0.000 c:\Virtual_Environments\theeng\lib\site-packages\plotly\validators\layout\legend\title\_text.py:1(<module>)
        1    0.000    0.000    0.000    0.000 c:\Virtual_Environments\theeng\lib\site-packages\plotly\validators\barpolar\marker\_line.py:1(<module>)
        1    0.000    0.000    0.000    0.000 c:\Virtual_Environments\theeng\lib\site-packages\plotly\validators\bar\error_y\_color.py:1(<module>)
        1    0.000    0.000    0.000    0.000 c:\Virtual_Environments\theeng\lib\site-packages\plotly\validators\bar\marker\_line.py:1(<module>)
        1    0.000    0.000    0.000    0.000 c:\Virtual_Environments\theeng\lib\site-packages\plotly\validators\bar\marker\pattern\_fillmode.py:1(<module>)
        1    0.000    0.000    0.000    0.000 c:\Virtual_Environments\theeng\lib\site-packages\plotly\validators\scatter\_hovertemplate.py:1(<module>)
        1    0.000    0.000    0.000    0.000 c:\Virtual_Environments\theeng\lib\site-packages\plotly\validators\heatmap\_colorbar.py:1(<module>)
        1    0.000    0.000    0.000    0.000 c:\Virtual_Environments\theeng\lib\site-packages\plotly\validators\histogram2dcontour\colorbar\_ticks.py:1(<module>)
        1    0.000    0.000    0.000    0.000 c:\Virtual_Environments\theeng\lib\site-packages\plotly\validators\layout\_hiddenlabels.py:1(<module>)
        1    0.000    0.000    0.000    0.000 c:\Virtual_Environments\theeng\lib\site-packages\plotly\graph_objs\layout\template\data\_parcoords.py:1(<module>)
        1    0.000    0.000    0.000    0.000 c:\Virtual_Environments\theeng\lib\site-packages\plotly\validators\scatter3d\marker\colorbar\_outlinewidth.py:1(<module>)
        1    0.000    0.000    0.000    0.000 c:\Virtual_Environments\theeng\lib\site-packages\plotly\validators\scattercarpet\marker\colorbar\_outlinewidth.py:1(<module>)
        1    0.000    0.000    0.000    0.000 c:\Virtual_Environments\theeng\lib\site-packages\plotly\validators\scattergeo\marker\_colorbar.py:1(<module>)
        1    0.000    0.000    0.000    0.000 c:\Virtual_Environments\theeng\lib\site-packages\plotly\validators\scattergl\marker\colorbar\_outlinewidth.py:1(<module>)
        1    0.000    0.000    0.000    0.000 c:\Virtual_Environments\theeng\lib\site-packages\plotly\validators\scatterpolar\_marker.py:1(<module>)
        1    0.000    0.000    0.000    0.000 c:\Virtual_Environments\theeng\lib\site-packages\plotly\validators\layout\font\_color.py:1(<module>)
        1    0.000    0.000    0.000    0.000 c:\Virtual_Environments\theeng\lib\site-packages\plotly\validators\layout\polar\angularaxis\_gridcolor.py:1(<module>)
        1    0.000    0.000    0.000    0.000 c:\Virtual_Environments\theeng\lib\site-packages\plotly\validators\layout\ternary\aaxis\_gridcolor.py:1(<module>)
       13    0.000    0.000    0.000    0.000 c:\Virtual_Environments\theeng\lib\site-packages\numpy\core\numeric.py:1407(_moveaxis_dispatcher)
        6    0.000    0.000    0.000    0.000 c:\Virtual_Environments\theeng\lib\site-packages\pandas\core\dtypes\cast.py:1619(<genexpr>)
        6    0.000    0.000    0.000    0.000 c:\Virtual_Environments\theeng\lib\site-packages\pandas\core\dtypes\cast.py:1635(<genexpr>)
        1    0.000    0.000    0.000    0.000 c:\Virtual_Environments\theeng\lib\site-packages\pandas\util\_validators.py:141(validate_kwargs)
        4    0.000    0.000    0.000    0.000 c:\Virtual_Environments\theeng\lib\site-packages\pandas\core\nanops.py:79(check)
        1    0.000    0.000    0.000    0.000 c:\Virtual_Environments\theeng\lib\site-packages\pandas\core\groupby\groupby.py:981(__getattr__)
        1    0.000    0.000    0.000    0.000 c:\Virtual_Environments\theeng\lib\site-packages\pymoo\core\termination.py:6(__init__)
        1    0.000    0.000    0.000    0.000 c:\Virtual_Environments\theeng\lib\site-packages\pymoo\core\initialization.py:11(__init__)
        4    0.000    0.000    0.000    0.000 c:\Virtual_Environments\theeng\lib\site-packages\theeng\core\problem.py:108(getBounds)
        1    0.000    0.000    0.000    0.000 c:\Virtual_Environments\theeng\lib\site-packages\theeng\core\simulator.py:10(__init__)
        6    0.000    0.000    0.000    0.000 c:\Virtual_Environments\theeng\lib\site-packages\joblib\memory.py:345(__init__)
        8    0.000    0.000    0.000    0.000 c:\Virtual_Environments\theeng\lib\site-packages\_plotly_utils\basevalidators.py:1871(<genexpr>)
        1    0.000    0.000    0.008    0.008 c:\Virtual_Environments\theeng\lib\site-packages\plotly\express\_core.py:947(<listcomp>)
        1    0.000    0.000    0.000    0.000 c:\Virtual_Environments\theeng\lib\site-packages\plotly\validators\layout\_colorscale.py:1(<module>)
        1    0.000    0.000    0.000    0.000 c:\Virtual_Environments\theeng\lib\site-packages\pymoo\termination\fmin.py:1(<module>)
        1    0.000    0.000    0.000    0.000 c:\Virtual_Environments\theeng\lib\site-packages\plotly\validators\layout\_annotations.py:1(<module>)
        1    0.000    0.000    0.000    0.000 c:\Virtual_Environments\theeng\lib\site-packages\plotly\validators\_frames.py:1(<module>)
        2    0.000    0.000    0.000    0.000 c:\Virtual_Environments\theeng\lib\site-packages\pymoo\util\reference_direction.py:60(<listcomp>)
        1    0.000    0.000    0.000    0.000 c:\Virtual_Environments\theeng\lib\site-packages\plotly\validators\layout\_hiddenlabelssrc.py:1(<module>)
        1    0.000    0.000    0.000    0.000 c:\Virtual_Environments\theeng\lib\site-packages\plotly\validators\layout\legend\_tracegroupgap.py:1(<module>)
        1    0.000    0.000    0.000    0.000 c:\Virtual_Environments\theeng\lib\site-packages\plotly\validators\layout\_sunburstcolorway.py:1(<module>)
        1    0.000    0.000    0.000    0.000 c:\Virtual_Environments\theeng\lib\site-packages\plotly\validators\layout\_scattermode.py:1(<module>)
        1    0.000    0.000    0.000    0.000 c:\Virtual_Environments\theeng\lib\site-packages\plotly\validators\layout\_polar.py:1(<module>)
        1    0.000    0.000    0.000    0.000 c:\Virtual_Environments\theeng\lib\site-packages\plotly\validators\barpolar\marker\line\_color.py:1(<module>)
        1    0.000    0.000    0.000    0.000 c:\Virtual_Environments\theeng\lib\site-packages\plotly\validators\carpet\_aaxis.py:1(<module>)
        1    0.000    0.000    0.000    0.000 c:\Virtual_Environments\theeng\lib\site-packages\plotly\validators\scatter\_legendgroup.py:1(<module>)
        1    0.000    0.000    0.000    0.000 c:\Virtual_Environments\theeng\lib\site-packages\plotly\validators\contourcarpet\colorbar\_outlinewidth.py:1(<module>)
        1    0.000    0.000    0.000    0.000 c:\Virtual_Environments\theeng\lib\site-packages\plotly\validators\layout\template\data\_heatmap.py:1(<module>)
        1    0.000    0.000    0.000    0.000 c:\Virtual_Environments\theeng\lib\site-packages\plotly\validators\parcoords\_name.py:1(<module>)
        1    0.000    0.000    0.000    0.000 c:\Virtual_Environments\theeng\lib\site-packages\plotly\validators\heatmap\_colorscale.py:1(<module>)
        1    0.000    0.000    0.000    0.000 c:\Virtual_Environments\theeng\lib\site-packages\plotly\validators\histogram2dcontour\_colorbar.py:1(<module>)
        1    0.000    0.000    0.000    0.000 c:\Virtual_Environments\theeng\lib\site-packages\plotly\validators\histogram2d\_colorbar.py:1(<module>)
        1    0.000    0.000    0.000    0.000 c:\Virtual_Environments\theeng\lib\site-packages\plotly\validators\histogram2d\colorbar\_outlinewidth.py:1(<module>)
        1    0.000    0.000    0.000    0.000 c:\Virtual_Environments\theeng\lib\site-packages\plotly\validators\histogram\marker\pattern\_fillmode.py:1(<module>)
        1    0.000    0.000    0.000    0.000 c:\Virtual_Environments\theeng\lib\site-packages\plotly\validators\layout\_hidesources.py:1(<module>)
        1    0.000    0.000    0.000    0.000 c:\Virtual_Environments\theeng\lib\site-packages\plotly\validators\layout\annotation\_arrowwidth.py:1(<module>)
        1    0.000    0.000    0.000    0.000 c:\Virtual_Environments\theeng\lib\site-packages\plotly\validators\mesh3d\colorbar\_ticks.py:1(<module>)
        1    0.000    0.000    0.000    0.000 c:\Virtual_Environments\theeng\lib\site-packages\plotly\validators\pie\_automargin.py:1(<module>)
        1    0.000    0.000    0.000    0.000 c:\Virtual_Environments\theeng\lib\site-packages\plotly\validators\scattercarpet\_marker.py:1(<module>)
        1    0.000    0.000    0.000    0.000 c:\Virtual_Environments\theeng\lib\site-packages\plotly\validators\scattermapbox\marker\colorbar\_outlinewidth.py:1(<module>)
        1    0.000    0.000    0.000    0.000 c:\Virtual_Environments\theeng\lib\site-packages\plotly\validators\scatterpolargl\marker\_colorbar.py:1(<module>)
        1    0.000    0.000    0.000    0.000 c:\Virtual_Environments\theeng\lib\site-packages\plotly\validators\scatterpolar\marker\colorbar\_ticks.py:1(<module>)
        1    0.000    0.000    0.000    0.000 c:\Virtual_Environments\theeng\lib\site-packages\plotly\validators\layout\template\data\_scatterternary.py:1(<module>)
        1    0.000    0.000    0.000    0.000 c:\Virtual_Environments\theeng\lib\site-packages\plotly\validators\surface\colorbar\_ticks.py:1(<module>)
        1    0.000    0.000    0.000    0.000 c:\Virtual_Environments\theeng\lib\site-packages\plotly\validators\table\header\_fill.py:1(<module>)
        1    0.000    0.000    0.000    0.000 c:\Virtual_Environments\theeng\lib\site-packages\plotly\validators\layout\hoverlabel\_align.py:1(<module>)
        1    0.000    0.000    0.000    0.000 c:\Virtual_Environments\theeng\lib\site-packages\plotly\validators\layout\scene\xaxis\_backgroundcolor.py:1(<module>)
        1    0.000    0.000    0.000    0.000 c:\Virtual_Environments\theeng\lib\site-packages\plotly\validators\layout\scene\yaxis\_backgroundcolor.py:1(<module>)
        1    0.000    0.000    0.000    0.000 c:\Virtual_Environments\theeng\lib\site-packages\plotly\validators\layout\scene\yaxis\_gridwidth.py:1(<module>)
        1    0.000    0.000    0.000    0.000 c:\Virtual_Environments\theeng\lib\site-packages\plotly\validators\layout\scene\zaxis\_backgroundcolor.py:1(<module>)
        1    0.000    0.000    0.000    0.000 c:\Virtual_Environments\theeng\lib\site-packages\plotly\validators\layout\scene\zaxis\_gridwidth.py:1(<module>)
        1    0.000    0.000    0.000    0.000 c:\Virtual_Environments\theeng\lib\site-packages\plotly\validators\layout\ternary\aaxis\_linecolor.py:1(<module>)
        1    0.000    0.000    0.000    0.000 c:\Virtual_Environments\theeng\lib\site-packages\plotly\validators\layout\ternary\caxis\_ticks.py:1(<module>)
        1    0.000    0.000    0.000    0.000 c:\Virtual_Environments\theeng\lib\site-packages\plotly\validators\layout\xaxis\_automargin.py:1(<module>)
        1    0.000    0.000    0.000    0.000 c:\Virtual_Environments\theeng\lib\site-packages\plotly\validators\layout\xaxis\title\_standoff.py:1(<module>)
        1    0.000    0.000    0.000    0.000 c:\Virtual_Environments\theeng\lib\site-packages\plotly\validators\layout\yaxis\_title.py:1(<module>)
        1    0.000    0.000    0.000    0.000 c:\Virtual_Environments\theeng\lib\site-packages\plotly\validators\parcoords\dimension\_values.py:1(<module>)
       11    0.000    0.000    0.000    0.000 c:\Virtual_Environments\theeng\lib\site-packages\numpy\core\multiarray.py:891(bincount)
        1    0.000    0.000    0.000    0.000 C:\Python38\lib\typing.py:120(_type_check)
        4    0.000    0.000    0.000    0.000 c:\Virtual_Environments\theeng\lib\site-packages\pandas\core\ops\array_ops.py:514(_bool_arith_check)
        2    0.000    0.000    0.000    0.000 c:\Virtual_Environments\theeng\lib\site-packages\pandas\core\indexes\base.py:5402(<setcomp>)
        1    0.000    0.000    0.000    0.000 c:\Virtual_Environments\theeng\lib\site-packages\pandas\core\generic.py:3908(xs)
        1    0.000    0.000    0.000    0.000 c:\Virtual_Environments\theeng\lib\site-packages\pandas\core\generic.py:11492(sum)
        5    0.000    0.000    0.000    0.000 c:\Virtual_Environments\theeng\lib\site-packages\pandas\core\internals\managers.py:1042(<genexpr>)
        1    0.000    0.000    0.000    0.000 c:\Virtual_Environments\theeng\lib\site-packages\pymoo\termination\max_eval.py:6(__init__)
       15    0.000    0.000    0.000    0.000 c:\Virtual_Environments\theeng\lib\site-packages\joblib\parallel.py:301(__len__)
       10    0.000    0.000    0.000    0.000 {method 'end' of 're.Match' objects}
        1    0.000    0.000    0.000    0.000 C:\Engineering Programs\FreeCAD 0.20\Mod\Fem\femsolver\calculix\write_constraint_pressure.py:24(<module>)
        1    0.000    0.000    0.000    0.000 C:\Engineering Programs\FreeCAD 0.20\Mod\Fem\femsolver\run.py:322(Machine)
        1    0.000    0.000    0.000    0.000 c:\Virtual_Environments\theeng\lib\site-packages\plotly\validators\layout\template\_data.py:1(<module>)
        3    0.000    0.000    0.000    0.000 c:\Virtual_Environments\theeng\lib\site-packages\plotly\graph_objs\_layout.py:219(annotations)
        1    0.000    0.000    0.000    0.000 c:\Virtual_Environments\theeng\lib\site-packages\plotly\validators\layout\yaxis\_anchor.py:1(<module>)
        1    0.000    0.000    0.000    0.000 c:\Virtual_Environments\theeng\lib\site-packages\plotly\validators\_layout.py:1(<module>)
        1    0.000    0.000    0.000    0.000 c:\Virtual_Environments\theeng\lib\site-packages\plotly\validators\layout\_yaxis.py:1(<module>)
        1    0.000    0.000    0.000    0.000 c:\Virtual_Environments\theeng\lib\site-packages\plotly\validators\layout\_violinmode.py:1(<module>)
        1    0.000    0.000    0.000    0.000 c:\Virtual_Environments\theeng\lib\site-packages\plotly\validators\layout\_scene.py:1(<module>)
        1    0.000    0.000    0.000    0.000 c:\Virtual_Environments\theeng\lib\site-packages\plotly\validators\layout\_boxgroupgap.py:1(<module>)
        1    0.000    0.000    0.000    0.000 c:\Virtual_Environments\theeng\lib\site-packages\plotly\validators\layout\_geo.py:1(<module>)
        1    0.000    0.000    0.000    0.000 c:\Virtual_Environments\theeng\lib\site-packages\plotly\validators\layout\_legend.py:1(<module>)
        1    0.000    0.000    0.000    0.000 c:\Virtual_Environments\theeng\lib\site-packages\plotly\validators\layout\_separators.py:1(<module>)
        1    0.000    0.000    0.000    0.000 c:\Virtual_Environments\theeng\lib\site-packages\plotly\validators\layout\_selectionrevision.py:1(<module>)
        1    0.000    0.000    0.000    0.000 c:\Virtual_Environments\theeng\lib\site-packages\plotly\validators\layout\_uirevision.py:1(<module>)
        1    0.000    0.000    0.000    0.000 c:\Virtual_Environments\theeng\lib\site-packages\plotly\validators\layout\_datarevision.py:1(<module>)
        1    0.000    0.000    0.000    0.000 c:\Virtual_Environments\theeng\lib\site-packages\plotly\validators\layout\_extendsunburstcolors.py:1(<module>)
        1    0.000    0.000    0.000    0.000 c:\Virtual_Environments\theeng\lib\site-packages\plotly\graph_objs\layout\legend\_title.py:124(__init__)
        1    0.000    0.000    0.000    0.000 c:\Virtual_Environments\theeng\lib\site-packages\plotly\validators\heatmap\_texttemplate.py:1(<module>)
        1    0.000    0.000    0.000    0.000 c:\Virtual_Environments\theeng\lib\site-packages\plotly\validators\barpolar\_marker.py:1(<module>)
        1    0.000    0.000    0.000    0.000 c:\Virtual_Environments\theeng\lib\site-packages\plotly\validators\barpolar\marker\pattern\_solidity.py:1(<module>)
        1    0.000    0.000    0.000    0.000 c:\Virtual_Environments\theeng\lib\site-packages\plotly\validators\parcoords\_dimensions.py:1(<module>)
        1    0.000    0.000    0.000    0.000 c:\Virtual_Environments\theeng\lib\site-packages\plotly\validators\layout\template\data\_bar.py:1(<module>)
        1    0.000    0.000    0.000    0.000 c:\Virtual_Environments\theeng\lib\site-packages\plotly\validators\bar\_error_x.py:1(<module>)
        1    0.000    0.000    0.000    0.000 c:\Virtual_Environments\theeng\lib\site-packages\plotly\validators\bar\error_x\_color.py:1(<module>)
        1    0.000    0.000    0.000    0.000 c:\Virtual_Environments\theeng\lib\site-packages\plotly\validators\bar\_error_y.py:1(<module>)
        1    0.000    0.000    0.000    0.000 c:\Virtual_Environments\theeng\lib\site-packages\plotly\validators\bar\marker\line\_color.py:1(<module>)
        1    0.000    0.000    0.000    0.000 c:\Virtual_Environments\theeng\lib\site-packages\plotly\validators\carpet\aaxis\_linecolor.py:1(<module>)
        1    0.000    0.000    0.000    0.000 c:\Virtual_Environments\theeng\lib\site-packages\plotly\validators\carpet\baxis\_startlinecolor.py:1(<module>)
        1    0.000    0.000    0.000    0.000 c:\Virtual_Environments\theeng\lib\site-packages\plotly\validators\layout\template\data\_choropleth.py:1(<module>)
        1    0.000    0.000    0.000    0.000 c:\Virtual_Environments\theeng\lib\site-packages\plotly\validators\choropleth\_colorbar.py:1(<module>)
        1    0.000    0.000    0.000    0.000 c:\Virtual_Environments\theeng\lib\site-packages\plotly\validators\choropleth\colorbar\_outlinewidth.py:1(<module>)
        1    0.000    0.000    0.000    0.000 c:\Virtual_Environments\theeng\lib\site-packages\plotly\validators\layout\_xaxis.py:1(<module>)
        1    0.000    0.000    0.000    0.000 c:\Virtual_Environments\theeng\lib\site-packages\plotly\validators\layout\_margin.py:1(<module>)
        1    0.000    0.000    0.000    0.000 c:\Virtual_Environments\theeng\lib\site-packages\plotly\validators\scatter\_showlegend.py:1(<module>)
        1    0.000    0.000    0.000    0.000 c:\Virtual_Environments\theeng\lib\site-packages\plotly\validators\layout\xaxis\title\_text.py:1(<module>)
        1    0.000    0.000    0.000    0.000 c:\Virtual_Environments\theeng\lib\site-packages\plotly\validators\contour\colorbar\_outlinewidth.py:1(<module>)
        1    0.000    0.000    0.000    0.000 c:\Virtual_Environments\theeng\lib\site-packages\plotly\validators\heatmapgl\colorbar\_outlinewidth.py:1(<module>)
        1    0.000    0.000    0.000    0.000 c:\Virtual_Environments\theeng\lib\site-packages\plotly\validators\heatmap\colorbar\_outlinewidth.py:1(<module>)
        1    0.000    0.000    0.000    0.000 c:\Virtual_Environments\theeng\lib\site-packages\plotly\validators\histogram2dcontour\_colorscale.py:1(<module>)
        1    0.000    0.000    0.000    0.000 c:\Virtual_Environments\theeng\lib\site-packages\plotly\validators\layout\template\data\_histogram2d.py:1(<module>)
        1    0.000    0.000    0.000    0.000 c:\Virtual_Environments\theeng\lib\site-packages\plotly\validators\layout\template\data\_histogram.py:1(<module>)
        1    0.000    0.000    0.000    0.000 c:\Virtual_Environments\theeng\lib\site-packages\plotly\validators\mesh3d\_colorbar.py:1(<module>)
        1    0.000    0.000    0.000    0.000 c:\Virtual_Environments\theeng\lib\site-packages\plotly\validators\layout\_funnelmode.py:1(<module>)
        1    0.000    0.000    0.000    0.000 c:\Virtual_Environments\theeng\lib\site-packages\plotly\validators\layout\_width.py:1(<module>)
        1    0.000    0.000    0.000    0.000 c:\Virtual_Environments\theeng\lib\site-packages\plotly\validators\mesh3d\colorbar\_outlinewidth.py:1(<module>)
        1    0.000    0.000    0.000    0.000 c:\Virtual_Environments\theeng\lib\site-packages\plotly\validators\parcoords\_line.py:1(<module>)
        1    0.000    0.000    0.000    0.000 c:\Virtual_Environments\theeng\lib\site-packages\plotly\validators\layout\template\data\_scatter3d.py:1(<module>)
        1    0.000    0.000    0.000    0.000 c:\Virtual_Environments\theeng\lib\site-packages\plotly\validators\scatter3d\_line.py:1(<module>)
        1    0.000    0.000    0.000    0.000 c:\Virtual_Environments\theeng\lib\site-packages\plotly\validators\scatter3d\line\colorbar\_outlinewidth.py:1(<module>)
        1    0.000    0.000    0.000    0.000 c:\Virtual_Environments\theeng\lib\site-packages\plotly\validators\layout\template\data\_scattercarpet.py:1(<module>)
        1    0.000    0.000    0.000    0.000 c:\Virtual_Environments\theeng\lib\site-packages\plotly\validators\scattergl\_marker.py:1(<module>)
        1    0.000    0.000    0.000    0.000 c:\Virtual_Environments\theeng\lib\site-packages\plotly\validators\scattergl\marker\_colorbar.py:1(<module>)
        1    0.000    0.000    0.000    0.000 c:\Virtual_Environments\theeng\lib\site-packages\plotly\validators\layout\template\data\_scatterpolargl.py:1(<module>)
        1    0.000    0.000    0.000    0.000 c:\Virtual_Environments\theeng\lib\site-packages\plotly\validators\scatterpolar\marker\_colorbar.py:1(<module>)
        1    0.000    0.000    0.000    0.000 c:\Virtual_Environments\theeng\lib\site-packages\plotly\validators\scatter\fillpattern\_size.py:1(<module>)
        1    0.000    0.000    0.000    0.000 c:\Virtual_Environments\theeng\lib\site-packages\plotly\validators\scatter\fillpattern\_solidity.py:1(<module>)
        1    0.000    0.000    0.000    0.000 c:\Virtual_Environments\theeng\lib\site-packages\plotly\validators\scatterternary\_marker.py:1(<module>)
        1    0.000    0.000    0.000    0.000 c:\Virtual_Environments\theeng\lib\site-packages\plotly\validators\scatterternary\marker\_colorbar.py:1(<module>)
        1    0.000    0.000    0.000    0.000 c:\Virtual_Environments\theeng\lib\site-packages\plotly\validators\surface\_colorbar.py:1(<module>)
        1    0.000    0.000    0.000    0.000 c:\Virtual_Environments\theeng\lib\site-packages\plotly\validators\surface\_colorscale.py:1(<module>)
        1    0.000    0.000    0.000    0.000 c:\Virtual_Environments\theeng\lib\site-packages\plotly\validators\table\_cells.py:1(<module>)
        1    0.000    0.000    0.000    0.000 c:\Virtual_Environments\theeng\lib\site-packages\plotly\validators\table\cells\line\_color.py:1(<module>)
        1    0.000    0.000    0.000    0.000 c:\Virtual_Environments\theeng\lib\site-packages\plotly\validators\table\header\line\_color.py:1(<module>)
        1    0.000    0.000    0.000    0.000 c:\Virtual_Environments\theeng\lib\site-packages\plotly\validators\layout\coloraxis\colorbar\_outlinewidth.py:1(<module>)
        1    0.000    0.000    0.000    0.000 c:\Virtual_Environments\theeng\lib\site-packages\plotly\validators\layout\colorscale\_diverging.py:1(<module>)
        1    0.000    0.000    0.000    0.000 c:\Virtual_Environments\theeng\lib\site-packages\plotly\validators\layout\geo\_lakecolor.py:1(<module>)
        1    0.000    0.000    0.000    0.000 c:\Virtual_Environments\theeng\lib\site-packages\plotly\validators\layout\geo\_landcolor.py:1(<module>)
        1    0.000    0.000    0.000    0.000 c:\Virtual_Environments\theeng\lib\site-packages\plotly\validators\layout\geo\_showlakes.py:1(<module>)
        1    0.000    0.000    0.000    0.000 c:\Virtual_Environments\theeng\lib\site-packages\plotly\validators\layout\polar\radialaxis\_ticks.py:1(<module>)
        1    0.000    0.000    0.000    0.000 c:\Virtual_Environments\theeng\lib\site-packages\plotly\validators\layout\scene\xaxis\_gridwidth.py:1(<module>)
        1    0.000    0.000    0.000    0.000 c:\Virtual_Environments\theeng\lib\site-packages\plotly\validators\layout\scene\xaxis\_linecolor.py:1(<module>)
        1    0.000    0.000    0.000    0.000 c:\Virtual_Environments\theeng\lib\site-packages\plotly\validators\layout\scene\yaxis\_gridcolor.py:1(<module>)
        1    0.000    0.000    0.000    0.000 c:\Virtual_Environments\theeng\lib\site-packages\plotly\validators\layout\scene\yaxis\_linecolor.py:1(<module>)
        1    0.000    0.000    0.000    0.000 c:\Virtual_Environments\theeng\lib\site-packages\plotly\validators\layout\shape\_line.py:1(<module>)
        1    0.000    0.000    0.000    0.000 c:\Virtual_Environments\theeng\lib\site-packages\plotly\validators\layout\ternary\aaxis\_ticks.py:1(<module>)
        1    0.000    0.000    0.000    0.000 c:\Virtual_Environments\theeng\lib\site-packages\plotly\validators\layout\ternary\caxis\_gridcolor.py:1(<module>)
        1    0.000    0.000    0.000    0.000 c:\Virtual_Environments\theeng\lib\site-packages\plotly\validators\layout\title\_x.py:1(<module>)
        1    0.000    0.000    0.000    0.000 c:\Virtual_Environments\theeng\lib\site-packages\plotly\validators\layout\xaxis\_gridcolor.py:1(<module>)
        1    0.000    0.000    0.000    0.000 c:\Virtual_Environments\theeng\lib\site-packages\plotly\validators\layout\xaxis\_title.py:1(<module>)
        1    0.000    0.000    0.000    0.000 c:\Virtual_Environments\theeng\lib\site-packages\plotly\validators\layout\xaxis\_zerolinecolor.py:1(<module>)
        1    0.000    0.000    0.000    0.000 c:\Virtual_Environments\theeng\lib\site-packages\plotly\validators\layout\xaxis\_zerolinewidth.py:1(<module>)
        1    0.000    0.000    0.000    0.000 c:\Virtual_Environments\theeng\lib\site-packages\plotly\validators\layout\yaxis\_linecolor.py:1(<module>)
        1    0.000    0.000    0.000    0.000 c:\Virtual_Environments\theeng\lib\site-packages\plotly\validators\heatmap\_z.py:1(<module>)
        1    0.000    0.000    0.000    0.000 c:\Virtual_Environments\theeng\lib\site-packages\plotly\validators\layout\yaxis\_constrain.py:1(<module>)
        1    0.000    0.000    0.000    0.000 c:\Virtual_Environments\theeng\lib\site-packages\plotly\validators\layout\xaxis\_scaleanchor.py:1(<module>)
        1    0.000    0.000    0.000    0.000 c:\Virtual_Environments\theeng\lib\site-packages\plotly\validators\layout\xaxis\_constrain.py:1(<module>)
        1    0.000    0.000    0.000    0.000 c:\Virtual_Environments\theeng\lib\site-packages\numpy\lib\shape_base.py:608(_column_stack_dispatcher)
        1    0.000    0.000    0.000    0.000 C:\Python38\lib\typing.py:689(copy_with)
        4    0.000    0.000    0.000    0.000 c:\Virtual_Environments\theeng\lib\site-packages\pandas\core\frame.py:11036(_get_agg_axis)
        2    0.000    0.000    0.000    0.000 c:\Virtual_Environments\theeng\lib\site-packages\pandas\core\indexes\api.py:104(<listcomp>)
        4    0.000    0.000    0.000    0.000 c:\Virtual_Environments\theeng\lib\site-packages\pandas\core\internals\concat.py:354(__init__)
        1    0.000    0.000    0.000    0.000 c:\Virtual_Environments\theeng\lib\site-packages\pymoo\core\algorithm.py:147(finalize)
        1    0.000    0.000    0.000    0.000 c:\Virtual_Environments\theeng\lib\site-packages\theeng\core\visualization.py:10(__init__)
        6    0.000    0.000    0.000    0.000 c:\Virtual_Environments\theeng\lib\site-packages\plotly\_subplots.py:440(<genexpr>)
        3    0.000    0.000    0.000    0.000 c:\Virtual_Environments\theeng\lib\site-packages\plotly\basedatatypes.py:4921(__eq__)
        1    0.000    0.000    0.000    0.000 C:\Engineering Programs\FreeCAD 0.20\Mod\Fem\femsolver\calculix\tasks.py:109(Solve)
        1    0.000    0.000    0.000    0.000 C:\Engineering Programs\FreeCAD 0.20\Mod\Fem\femsolver\calculix\write_constraint_contact.py:24(<module>)
        1    0.000    0.000    0.000    0.000 C:\Engineering Programs\FreeCAD 0.20\Mod\Fem\femsolver\calculix\write_constraint_fixed.py:24(<module>)
        1    0.000    0.000    0.000    0.000 C:\Engineering Programs\FreeCAD 0.20\Mod\Fem\femsolver\calculix\write_femelement_material.py:24(<module>)
        1    0.000    0.000    0.000    0.000 c:\Virtual_Environments\theeng\lib\site-packages\plotly\validators\layout\yaxis\_domain.py:1(<module>)
        1    0.000    0.000    0.000    0.000 c:\Virtual_Environments\theeng\lib\site-packages\pymoo\util\ref_dirs\energy.py:12(RieszEnergyReferenceDirectionFactory)
        1    0.000    0.000    0.000    0.000 c:\Virtual_Environments\theeng\lib\site-packages\pymoo\util\reference_direction.py:81(get_partition_closest_to_points)
        1    0.000    0.000    0.000    0.000 c:\Virtual_Environments\theeng\lib\site-packages\plotly\validators\layout\_grid.py:1(<module>)
        1    0.000    0.000    0.000    0.000 c:\Virtual_Environments\theeng\lib\site-packages\plotly\validators\layout\_mapbox.py:1(<module>)
        1    0.000    0.000    0.000    0.000 c:\Virtual_Environments\theeng\lib\site-packages\plotly\validators\layout\_smith.py:1(<module>)
        1    0.000    0.000    0.000    0.000 c:\Virtual_Environments\theeng\lib\site-packages\plotly\validators\layout\_violingap.py:1(<module>)
        1    0.000    0.000    0.000    0.000 c:\Virtual_Environments\theeng\lib\site-packages\plotly\validators\layout\_modebar.py:1(<module>)
        1    0.000    0.000    0.000    0.000 c:\Virtual_Environments\theeng\lib\site-packages\plotly\validators\layout\_minreducedwidth.py:1(<module>)
        1    0.000    0.000    0.000    0.000 c:\Virtual_Environments\theeng\lib\site-packages\plotly\validators\layout\_activeshape.py:1(<module>)
        1    0.000    0.000    0.000    0.000 c:\Virtual_Environments\theeng\lib\site-packages\plotly\validators\layout\_scattergap.py:1(<module>)
        1    0.000    0.000    0.000    0.000 c:\Virtual_Environments\theeng\lib\site-packages\plotly\validators\layout\_autotypenumbers.py:1(<module>)
        1    0.000    0.000    0.000    0.000 c:\Virtual_Environments\theeng\lib\site-packages\plotly\validators\layout\_spikedistance.py:1(<module>)
        1    0.000    0.000    0.000    0.000 c:\Virtual_Environments\theeng\lib\site-packages\plotly\validators\layout\_dragmode.py:1(<module>)
        1    0.000    0.000    0.000    0.000 c:\Virtual_Environments\theeng\lib\site-packages\plotly\validators\layout\_boxmode.py:1(<module>)
        1    0.000    0.000    0.000    0.000 c:\Virtual_Environments\theeng\lib\site-packages\plotly\validators\layout\_images.py:1(<module>)
        1    0.000    0.000    0.000    0.000 c:\Virtual_Environments\theeng\lib\site-packages\plotly\validators\layout\_funnelgroupgap.py:1(<module>)
        1    0.000    0.000    0.000    0.000 c:\Virtual_Environments\theeng\lib\site-packages\plotly\validators\layout\_selectiondefaults.py:1(<module>)
        1    0.000    0.000    0.000    0.000 c:\Virtual_Environments\theeng\lib\site-packages\plotly\validators\layout\_hoverlabel.py:1(<module>)
        1    0.000    0.000    0.000    0.000 c:\Virtual_Environments\theeng\lib\site-packages\plotly\validators\barpolar\marker\_pattern.py:1(<module>)
        1    0.000    0.000    0.000    0.000 c:\Virtual_Environments\theeng\lib\site-packages\plotly\validators\barpolar\marker\pattern\_fillmode.py:1(<module>)
        1    0.000    0.000    0.000    0.000 c:\Virtual_Environments\theeng\lib\site-packages\plotly\validators\bar\marker\pattern\_solidity.py:1(<module>)
        1    0.000    0.000    0.000    0.000 c:\Virtual_Environments\theeng\lib\site-packages\plotly\validators\layout\template\data\_carpet.py:1(<module>)
        1    0.000    0.000    0.000    0.000 c:\Virtual_Environments\theeng\lib\site-packages\plotly\validators\layout\template\data\_scatter.py:1(<module>)
        1    0.000    0.000    0.000    0.000 c:\Virtual_Environments\theeng\lib\site-packages\plotly\validators\carpet\baxis\_linecolor.py:1(<module>)
        1    0.000    0.000    0.000    0.000 c:\Virtual_Environments\theeng\lib\site-packages\plotly\validators\carpet\baxis\_minorgridcolor.py:1(<module>)
        1    0.000    0.000    0.000    0.000 c:\Virtual_Environments\theeng\lib\site-packages\plotly\validators\scatter\marker\_color.py:1(<module>)
        1    0.000    0.000    0.000    0.000 c:\Virtual_Environments\theeng\lib\site-packages\plotly\validators\contourcarpet\_colorbar.py:1(<module>)
        1    0.000    0.000    0.000    0.000 c:\Virtual_Environments\theeng\lib\site-packages\plotly\validators\contourcarpet\colorbar\_ticks.py:1(<module>)
        1    0.000    0.000    0.000    0.000 c:\Virtual_Environments\theeng\lib\site-packages\plotly\validators\layout\template\data\_contour.py:1(<module>)
        1    0.000    0.000    0.000    0.000 c:\Virtual_Environments\theeng\lib\site-packages\plotly\validators\contour\_colorbar.py:1(<module>)
        1    0.000    0.000    0.000    0.000 c:\Virtual_Environments\theeng\lib\site-packages\plotly\validators\contour\_colorscale.py:1(<module>)
        1    0.000    0.000    0.000    0.000 c:\Virtual_Environments\theeng\lib\site-packages\plotly\validators\layout\template\data\_heatmapgl.py:1(<module>)
        1    0.000    0.000    0.000    0.000 c:\Virtual_Environments\theeng\lib\site-packages\plotly\validators\heatmapgl\colorbar\_ticks.py:1(<module>)
        1    0.000    0.000    0.000    0.000 c:\Virtual_Environments\theeng\lib\site-packages\plotly\validators\heatmapgl\_colorscale.py:1(<module>)
        1    0.000    0.000    0.000    0.000 c:\Virtual_Environments\theeng\lib\site-packages\plotly\validators\heatmap\colorbar\_ticks.py:1(<module>)
        1    0.000    0.000    0.000    0.000 c:\Virtual_Environments\theeng\lib\site-packages\plotly\validators\histogram2dcontour\colorbar\_outlinewidth.py:1(<module>)
        1    0.000    0.000    0.000    0.000 c:\Virtual_Environments\theeng\lib\site-packages\plotly\validators\histogram2d\colorbar\_ticks.py:1(<module>)
        1    0.000    0.000    0.000    0.000 c:\Virtual_Environments\theeng\lib\site-packages\plotly\validators\histogram2d\_colorscale.py:1(<module>)
        1    0.000    0.000    0.000    0.000 c:\Virtual_Environments\theeng\lib\site-packages\plotly\validators\histogram\marker\_pattern.py:1(<module>)
        1    0.000    0.000    0.000    0.000 c:\Virtual_Environments\theeng\lib\site-packages\plotly\validators\layout\_extendfunnelareacolors.py:1(<module>)
        1    0.000    0.000    0.000    0.000 c:\Virtual_Environments\theeng\lib\site-packages\plotly\validators\layout\_waterfallgap.py:1(<module>)
        1    0.000    0.000    0.000    0.000 c:\Virtual_Environments\theeng\lib\site-packages\plotly\validators\layout\_extendpiecolors.py:1(<module>)
        1    0.000    0.000    0.000    0.000 c:\Virtual_Environments\theeng\lib\site-packages\plotly\validators\layout\_transition.py:1(<module>)
        1    0.000    0.000    0.000    0.000 c:\Virtual_Environments\theeng\lib\site-packages\plotly\validators\parcoords\line\colorbar\_outlinewidth.py:1(<module>)
        1    0.000    0.000    0.000    0.000 c:\Virtual_Environments\theeng\lib\site-packages\plotly\validators\layout\template\data\_pie.py:1(<module>)
        1    0.000    0.000    0.000    0.000 c:\Virtual_Environments\theeng\lib\site-packages\plotly\validators\scatter3d\line\colorbar\_ticks.py:1(<module>)
        1    0.000    0.000    0.000    0.000 c:\Virtual_Environments\theeng\lib\site-packages\plotly\validators\scatter3d\marker\_colorbar.py:1(<module>)
        1    0.000    0.000    0.000    0.000 c:\Virtual_Environments\theeng\lib\site-packages\plotly\validators\scattercarpet\marker\_colorbar.py:1(<module>)
        1    0.000    0.000    0.000    0.000 c:\Virtual_Environments\theeng\lib\site-packages\plotly\validators\scattergeo\_marker.py:1(<module>)
        1    0.000    0.000    0.000    0.000 c:\Virtual_Environments\theeng\lib\site-packages\plotly\validators\scattergeo\marker\colorbar\_outlinewidth.py:1(<module>)
        1    0.000    0.000    0.000    0.000 c:\Virtual_Environments\theeng\lib\site-packages\plotly\validators\scattergeo\marker\colorbar\_ticks.py:1(<module>)
        1    0.000    0.000    0.000    0.000 c:\Virtual_Environments\theeng\lib\site-packages\plotly\validators\layout\template\data\_scattergl.py:1(<module>)
        1    0.000    0.000    0.000    0.000 c:\Virtual_Environments\theeng\lib\site-packages\plotly\validators\scattergl\marker\colorbar\_ticks.py:1(<module>)
        1    0.000    0.000    0.000    0.000 c:\Virtual_Environments\theeng\lib\site-packages\plotly\validators\scattermapbox\_marker.py:1(<module>)
        1    0.000    0.000    0.000    0.000 c:\Virtual_Environments\theeng\lib\site-packages\plotly\validators\scattermapbox\marker\_colorbar.py:1(<module>)
        1    0.000    0.000    0.000    0.000 c:\Virtual_Environments\theeng\lib\site-packages\plotly\validators\scatterpolar\marker\colorbar\_outlinewidth.py:1(<module>)
        1    0.000    0.000    0.000    0.000 c:\Virtual_Environments\theeng\lib\site-packages\plotly\validators\layout\template\data\_surface.py:1(<module>)
        1    0.000    0.000    0.000    0.000 c:\Virtual_Environments\theeng\lib\site-packages\plotly\validators\table\cells\fill\_color.py:1(<module>)
        1    0.000    0.000    0.000    0.000 c:\Virtual_Environments\theeng\lib\site-packages\plotly\validators\layout\geo\_subunitcolor.py:1(<module>)
        1    0.000    0.000    0.000    0.000 c:\Virtual_Environments\theeng\lib\site-packages\plotly\validators\layout\mapbox\_style.py:1(<module>)
        1    0.000    0.000    0.000    0.000 c:\Virtual_Environments\theeng\lib\site-packages\plotly\validators\layout\polar\_angularaxis.py:1(<module>)
        1    0.000    0.000    0.000    0.000 c:\Virtual_Environments\theeng\lib\site-packages\plotly\validators\layout\polar\angularaxis\_linecolor.py:1(<module>)
        1    0.000    0.000    0.000    0.000 c:\Virtual_Environments\theeng\lib\site-packages\plotly\validators\layout\polar\_radialaxis.py:1(<module>)
        1    0.000    0.000    0.000    0.000 c:\Virtual_Environments\theeng\lib\site-packages\plotly\validators\layout\polar\radialaxis\_gridcolor.py:1(<module>)
        1    0.000    0.000    0.000    0.000 c:\Virtual_Environments\theeng\lib\site-packages\plotly\validators\layout\scene\xaxis\_gridcolor.py:1(<module>)
        1    0.000    0.000    0.000    0.000 c:\Virtual_Environments\theeng\lib\site-packages\plotly\validators\layout\scene\xaxis\_showbackground.py:1(<module>)
        1    0.000    0.000    0.000    0.000 c:\Virtual_Environments\theeng\lib\site-packages\plotly\validators\layout\scene\xaxis\_zerolinecolor.py:1(<module>)
        1    0.000    0.000    0.000    0.000 c:\Virtual_Environments\theeng\lib\site-packages\plotly\validators\layout\shape\line\_color.py:1(<module>)
        1    0.000    0.000    0.000    0.000 c:\Virtual_Environments\theeng\lib\site-packages\plotly\validators\layout\ternary\_caxis.py:1(<module>)
        1    0.000    0.000    0.000    0.000 c:\Virtual_Environments\theeng\lib\site-packages\plotly\validators\layout\xaxis\_linecolor.py:1(<module>)
        1    0.000    0.000    0.000    0.000 c:\Virtual_Environments\theeng\lib\site-packages\plotly\validators\layout\yaxis\_gridcolor.py:1(<module>)
        1    0.000    0.000    0.000    0.000 c:\Virtual_Environments\theeng\lib\site-packages\plotly\validators\layout\yaxis\title\_standoff.py:1(<module>)
        1    0.000    0.000    0.000    0.000 c:\Virtual_Environments\theeng\lib\site-packages\plotly\validators\heatmap\_xaxis.py:1(<module>)
        1    0.000    0.000    0.000    0.000 c:\Virtual_Environments\theeng\lib\site-packages\plotly\validators\heatmap\_hovertemplate.py:1(<module>)
        1    0.000    0.000    0.000    0.000 c:\Virtual_Environments\theeng\lib\site-packages\plotly\validators\layout\yaxis\_autorange.py:1(<module>)
        1    0.000    0.000    0.000    0.000 c:\Virtual_Environments\theeng\lib\site-packages\plotly\validators\layout\coloraxis\_cmin.py:1(<module>)
        1    0.000    0.000    0.000    0.000 c:\Virtual_Environments\theeng\lib\site-packages\numpy\linalg\linalg.py:88(_raise_linalgerror_singular)
        1    0.000    0.000    0.001    0.001 c:\Virtual_Environments\theeng\lib\site-packages\pandas\core\algorithms.py:315(unique)
        1    0.000    0.000    0.000    0.000 c:\Virtual_Environments\theeng\lib\site-packages\pandas\core\dtypes\cast.py:714(_ensure_dtype_type)
        4    0.000    0.000    0.000    0.000 c:\Virtual_Environments\theeng\lib\site-packages\pandas\core\dtypes\cast.py:1628(<genexpr>)
        1    0.000    0.000    0.000    0.000 c:\Virtual_Environments\theeng\lib\site-packages\pandas\core\generic.py:2069(__array__)
        6    0.000    0.000    0.000    0.000 c:\Virtual_Environments\theeng\lib\site-packages\pandas\core\internals\blocks.py:217(mgr_locs)
        2    0.000    0.000    0.000    0.000 c:\Virtual_Environments\theeng\lib\site-packages\pandas\core\internals\concat.py:246(_maybe_reindex_columns_na_proxy)
        2    0.000    0.000    0.003    0.002 c:\Virtual_Environments\theeng\lib\site-packages\plotly\graph_objs\layout\_template.py:15(data)
        1    0.000    0.000    0.001    0.001 c:\Virtual_Environments\theeng\lib\site-packages\pandas\core\series.py:2183(unique)
        1    0.000    0.000    0.000    0.000 C:\Python38\lib\uuid.py:327(hex)
        1    0.000    0.000    0.000    0.000 c:\Virtual_Environments\theeng\lib\site-packages\pymoo\util\display\display.py:7(__init__)
        1    0.000    0.000    0.000    0.000 C:\Engineering Programs\FreeCAD 0.20\Mod\Fem\femsolver\calculix\write_constraint_sectionprint.py:24(<module>)
        1    0.000    0.000    0.000    0.000 C:\Engineering Programs\FreeCAD 0.20\Mod\Fem\femsolver\calculix\write_constraint_temperature.py:24(<module>)
        1    0.000    0.000    0.000    0.000 C:\Engineering Programs\FreeCAD 0.20\Mod\Fem\femsolver\writerbase.py:39(FemInputWriter)
        3    0.000    0.000    0.000    0.000 c:\Virtual_Environments\theeng\lib\site-packages\plotly\graph_objs\_layout.py:1957(legend)
        6    0.000    0.000    0.000    0.000 c:\Virtual_Environments\theeng\lib\site-packages\plotly\io\_json.py:21(default_engine)
        1    0.000    0.000    0.000    0.000 c:\Virtual_Environments\theeng\lib\site-packages\plotly\validators\layout\_editrevision.py:1(<module>)
        1    0.000    0.000    0.000    0.000 c:\Virtual_Environments\theeng\lib\site-packages\plotly\validators\layout\_autosize.py:1(<module>)
        1    0.000    0.000    0.000    0.000 c:\Virtual_Environments\theeng\lib\site-packages\plotly\validators\layout\_height.py:1(<module>)
        1    0.000    0.000    0.000    0.000 c:\Virtual_Environments\theeng\lib\site-packages\plotly\validators\layout\_sliders.py:1(<module>)
        1    0.000    0.000    0.000    0.000 c:\Virtual_Environments\theeng\lib\site-packages\plotly\validators\layout\_newshape.py:1(<module>)
        1    0.000    0.000    0.000    0.000 c:\Virtual_Environments\theeng\lib\site-packages\plotly\validators\layout\_annotationdefaults.py:1(<module>)
        1    0.000    0.000    0.000    0.000 c:\Virtual_Environments\theeng\lib\site-packages\plotly\validators\layout\_treemapcolorway.py:1(<module>)
        1    0.000    0.000    0.000    0.000 c:\Virtual_Environments\theeng\lib\site-packages\plotly\validators\layout\_boxgap.py:1(<module>)
        1    0.000    0.000    0.000    0.000 c:\Virtual_Environments\theeng\lib\site-packages\plotly\validators\layout\_imagedefaults.py:1(<module>)
        1    0.000    0.000    0.000    0.000 c:\Virtual_Environments\theeng\lib\site-packages\plotly\validators\layout\_showlegend.py:1(<module>)
        1    0.000    0.000    0.000    0.000 c:\Virtual_Environments\theeng\lib\site-packages\plotly\validators\layout\_funnelareacolorway.py:1(<module>)
        1    0.000    0.000    0.000    0.000 c:\Virtual_Environments\theeng\lib\site-packages\plotly\validators\layout\_font.py:1(<module>)
        1    0.000    0.000    0.000    0.000 c:\Virtual_Environments\theeng\lib\site-packages\plotly\validators\layout\_computed.py:1(<module>)
        1    0.000    0.000    0.000    0.000 c:\Virtual_Environments\theeng\lib\site-packages\plotly\validators\layout\_bargroupgap.py:1(<module>)
        1    0.000    0.000    0.000    0.000 c:\Virtual_Environments\theeng\lib\site-packages\plotly\validators\layout\_shapes.py:1(<module>)
        1    0.000    0.000    0.000    0.000 c:\Virtual_Environments\theeng\lib\site-packages\plotly\validators\layout\_hovermode.py:1(<module>)
        1    0.000    0.000    0.000    0.000 c:\Virtual_Environments\theeng\lib\site-packages\plotly\validators\layout\_extendtreemapcolors.py:1(<module>)
        1    0.000    0.000    0.000    0.000 c:\Virtual_Environments\theeng\lib\site-packages\plotly\validators\layout\_clickmode.py:1(<module>)
        1    0.000    0.000    0.000    0.000 c:\Virtual_Environments\theeng\lib\site-packages\plotly\validators\layout\_piecolorway.py:1(<module>)
        1    0.000    0.000    0.000    0.000 c:\Virtual_Environments\theeng\lib\site-packages\plotly\validators\layout\template\data\_barpolar.py:1(<module>)
        1    0.000    0.000    0.000    0.000 c:\Virtual_Environments\theeng\lib\site-packages\plotly\validators\bar\marker\line\_width.py:1(<module>)
        1    0.000    0.000    0.000    0.000 c:\Virtual_Environments\theeng\lib\site-packages\plotly\validators\bar\marker\_pattern.py:1(<module>)
        2    0.000    0.000    0.005    0.003 c:\Virtual_Environments\theeng\lib\site-packages\plotly\graph_objs\layout\template\_data.py:892(scatter)
        1    0.000    0.000    0.000    0.000 c:\Virtual_Environments\theeng\lib\site-packages\plotly\validators\carpet\aaxis\_minorgridcolor.py:1(<module>)
        1    0.000    0.000    0.000    0.000 c:\Virtual_Environments\theeng\lib\site-packages\plotly\validators\carpet\aaxis\_startlinecolor.py:1(<module>)
        1    0.000    0.000    0.000    0.000 c:\Virtual_Environments\theeng\lib\site-packages\plotly\validators\carpet\_baxis.py:1(<module>)
        1    0.000    0.000    0.000    0.000 c:\Virtual_Environments\theeng\lib\site-packages\plotly\validators\carpet\baxis\_gridcolor.py:1(<module>)
        1    0.000    0.000    0.000    0.000 c:\Virtual_Environments\theeng\lib\site-packages\plotly\validators\scatter\_orientation.py:1(<module>)
        1    0.000    0.000    0.000    0.000 c:\Virtual_Environments\theeng\lib\site-packages\plotly\validators\scatter\_y.py:1(<module>)
        1    0.000    0.000    0.000    0.000 c:\Virtual_Environments\theeng\lib\site-packages\plotly\validators\choropleth\colorbar\_ticks.py:1(<module>)
        1    0.000    0.000    0.000    0.000 c:\Virtual_Environments\theeng\lib\site-packages\plotly\validators\layout\template\data\_contourcarpet.py:1(<module>)
        1    0.000    0.000    0.000    0.000 c:\Virtual_Environments\theeng\lib\site-packages\plotly\validators\contour\colorbar\_ticks.py:1(<module>)
        1    0.000    0.000    0.000    0.000 c:\Virtual_Environments\theeng\lib\site-packages\plotly\validators\layout\template\data\_mesh3d.py:1(<module>)
        1    0.000    0.000    0.000    0.000 c:\Virtual_Environments\theeng\lib\site-packages\plotly\validators\layout\_meta.py:1(<module>)
        1    0.000    0.000    0.000    0.000 c:\Virtual_Environments\theeng\lib\site-packages\plotly\validators\layout\_plot_bgcolor.py:1(<module>)
        1    0.000    0.000    0.000    0.000 c:\Virtual_Environments\theeng\lib\site-packages\plotly\validators\layout\_updatemenus.py:1(<module>)
        1    0.000    0.000    0.000    0.000 c:\Virtual_Environments\theeng\lib\site-packages\plotly\validators\layout\_calendar.py:1(<module>)
        1    0.000    0.000    0.000    0.000 c:\Virtual_Environments\theeng\lib\site-packages\plotly\validators\layout\_hoverdistance.py:1(<module>)
        1    0.000    0.000    0.000    0.000 c:\Virtual_Environments\theeng\lib\site-packages\plotly\validators\layout\_barnorm.py:1(<module>)
        1    0.000    0.000    0.000    0.000 c:\Virtual_Environments\theeng\lib\site-packages\plotly\validators\layout\template\data\_parcoords.py:1(<module>)
        1    0.000    0.000    0.000    0.000 c:\Virtual_Environments\theeng\lib\site-packages\plotly\validators\scatter3d\_marker.py:1(<module>)
        1    0.000    0.000    0.000    0.000 c:\Virtual_Environments\theeng\lib\site-packages\plotly\validators\layout\template\data\_scattermapbox.py:1(<module>)
        1    0.000    0.000    0.000    0.000 c:\Virtual_Environments\theeng\lib\site-packages\plotly\validators\scattermapbox\marker\colorbar\_ticks.py:1(<module>)
        1    0.000    0.000    0.000    0.000 c:\Virtual_Environments\theeng\lib\site-packages\plotly\validators\scatterpolargl\_marker.py:1(<module>)
        1    0.000    0.000    0.000    0.000 c:\Virtual_Environments\theeng\lib\site-packages\plotly\validators\scatterternary\marker\colorbar\_outlinewidth.py:1(<module>)
        1    0.000    0.000    0.000    0.000 c:\Virtual_Environments\theeng\lib\site-packages\plotly\validators\scatterternary\marker\colorbar\_ticks.py:1(<module>)
        1    0.000    0.000    0.000    0.000 c:\Virtual_Environments\theeng\lib\site-packages\plotly\validators\surface\colorbar\_outlinewidth.py:1(<module>)
        1    0.000    0.000    0.000    0.000 c:\Virtual_Environments\theeng\lib\site-packages\plotly\validators\layout\template\data\_table.py:1(<module>)
        1    0.000    0.000    0.000    0.000 c:\Virtual_Environments\theeng\lib\site-packages\plotly\validators\table\cells\_line.py:1(<module>)
        1    0.000    0.000    0.000    0.000 c:\Virtual_Environments\theeng\lib\site-packages\plotly\validators\table\header\_line.py:1(<module>)
        1    0.000    0.000    0.000    0.000 c:\Virtual_Environments\theeng\lib\site-packages\plotly\validators\layout\coloraxis\colorbar\_ticks.py:1(<module>)
        1    0.000    0.000    0.000    0.000 c:\Virtual_Environments\theeng\lib\site-packages\plotly\validators\layout\polar\radialaxis\_linecolor.py:1(<module>)
        1    0.000    0.000    0.000    0.000 c:\Virtual_Environments\theeng\lib\site-packages\plotly\validators\layout\scene\xaxis\_ticks.py:1(<module>)
        1    0.000    0.000    0.000    0.000 c:\Virtual_Environments\theeng\lib\site-packages\plotly\validators\layout\scene\yaxis\_ticks.py:1(<module>)
        1    0.000    0.000    0.000    0.000 c:\Virtual_Environments\theeng\lib\site-packages\plotly\validators\layout\scene\_zaxis.py:1(<module>)
        1    0.000    0.000    0.000    0.000 c:\Virtual_Environments\theeng\lib\site-packages\plotly\validators\layout\scene\zaxis\_gridcolor.py:1(<module>)
        1    0.000    0.000    0.000    0.000 c:\Virtual_Environments\theeng\lib\site-packages\plotly\validators\layout\scene\zaxis\_zerolinecolor.py:1(<module>)
        1    0.000    0.000    0.000    0.000 c:\Virtual_Environments\theeng\lib\site-packages\plotly\validators\layout\ternary\_baxis.py:1(<module>)
        1    0.000    0.000    0.000    0.000 c:\Virtual_Environments\theeng\lib\site-packages\plotly\validators\layout\ternary\baxis\_linecolor.py:1(<module>)
        1    0.000    0.000    0.000    0.000 c:\Virtual_Environments\theeng\lib\site-packages\plotly\validators\layout\xaxis\_ticks.py:1(<module>)
        1    0.000    0.000    0.000    0.000 c:\Virtual_Environments\theeng\lib\site-packages\plotly\validators\layout\coloraxis\_colorscale.py:1(<module>)
        1    0.000    0.000    0.000    0.000 c:\Virtual_Environments\theeng\lib\site-packages\plotly\validators\heatmap\_yaxis.py:1(<module>)
        2    0.000    0.000    0.000    0.000 C:\Python38\lib\_collections_abc.py:664(__contains__)
        2    0.000    0.000    0.000    0.000 c:\Virtual_Environments\theeng\lib\site-packages\pandas\_config\config.py:442(<listcomp>)
        1    0.000    0.000    0.000    0.000 c:\Virtual_Environments\theeng\lib\site-packages\pandas\core\indexes\api.py:256(_find_common_index_dtype)
        2    0.000    0.000    0.000    0.000 c:\Virtual_Environments\theeng\lib\site-packages\pandas\io\formats\format.py:651(has_column_names)
        1    0.000    0.000    0.001    0.001 c:\Virtual_Environments\theeng\lib\site-packages\scipy\stats\_qmc.py:741(random)
        1    0.000    0.000    0.000    0.000 c:\Virtual_Environments\theeng\lib\site-packages\typing_extensions.py:92(_check_generic)
        6    0.000    0.000    0.000    0.000 {built-in method _operator.lt}
        1    0.000    0.000    0.000    0.000 {built-in method nt._getfullpathname}
        2    0.000    0.000    0.000    0.000 c:\Virtual_Environments\theeng\lib\site-packages\plotly\express\_core.py:2003(<listcomp>)
        1    0.000    0.000    0.000    0.000 c:\Virtual_Environments\theeng\lib\site-packages\plotly\basedatatypes.py:1739(_restyle_child)
        1    0.000    0.000    0.000    0.000 C:\Engineering Programs\FreeCAD 0.20\Mod\Fem\femsolver\calculix\write_constraint_displacement.py:24(<module>)
        1    0.000    0.000    0.429    0.429 c:\Virtual_Environments\theeng\lib\site-packages\pymoo\util\reference_direction.py:36(__call__)
        1    0.000    0.000    0.000    0.000 c:\Virtual_Environments\theeng\lib\site-packages\plotly\validators\layout\_waterfallmode.py:1(<module>)
        1    0.000    0.000    0.000    0.000 c:\Virtual_Environments\theeng\lib\site-packages\plotly\validators\layout\_violingroupgap.py:1(<module>)
        1    0.000    0.000    0.000    0.000 c:\Virtual_Environments\theeng\lib\site-packages\plotly\validators\layout\_uniformtext.py:1(<module>)
        1    0.000    0.000    0.000    0.000 c:\Virtual_Environments\theeng\lib\site-packages\plotly\validators\layout\_newselection.py:1(<module>)
        1    0.000    0.000    0.000    0.000 c:\Virtual_Environments\theeng\lib\site-packages\plotly\validators\layout\_funnelgap.py:1(<module>)
        1    0.000    0.000    0.000    0.000 c:\Virtual_Environments\theeng\lib\site-packages\plotly\validators\bar\_marker.py:1(<module>)
        1    0.000    0.000    0.000    0.000 c:\Virtual_Environments\theeng\lib\site-packages\plotly\validators\bar\marker\pattern\_size.py:1(<module>)
        1    0.000    0.000    0.000    0.000 c:\Virtual_Environments\theeng\lib\site-packages\plotly\validators\carpet\aaxis\_gridcolor.py:1(<module>)
        1    0.000    0.000    0.000    0.000 c:\Virtual_Environments\theeng\lib\site-packages\plotly\validators\histogram\marker\pattern\_size.py:1(<module>)
        1    0.000    0.000    0.000    0.000 c:\Virtual_Environments\theeng\lib\site-packages\plotly\validators\layout\_sliderdefaults.py:1(<module>)
        1    0.000    0.000    0.000    0.000 c:\Virtual_Environments\theeng\lib\site-packages\plotly\validators\layout\_coloraxis.py:1(<module>)
        1    0.000    0.000    0.000    0.000 c:\Virtual_Environments\theeng\lib\site-packages\plotly\validators\layout\_selectdirection.py:1(<module>)
        1    0.000    0.000    0.000    0.000 c:\Virtual_Environments\theeng\lib\site-packages\plotly\validators\layout\_barmode.py:1(<module>)
        1    0.000    0.000    0.000    0.000 c:\Virtual_Environments\theeng\lib\site-packages\plotly\validators\layout\_shapedefaults.py:1(<module>)
        1    0.000    0.000    0.000    0.000 c:\Virtual_Environments\theeng\lib\site-packages\plotly\validators\scattercarpet\marker\colorbar\_ticks.py:1(<module>)
        1    0.000    0.000    0.000    0.000 c:\Virtual_Environments\theeng\lib\site-packages\plotly\validators\scatterpolargl\marker\colorbar\_outlinewidth.py:1(<module>)
        1    0.000    0.000    0.000    0.000 c:\Virtual_Environments\theeng\lib\site-packages\plotly\validators\scatterpolargl\marker\colorbar\_ticks.py:1(<module>)
        1    0.000    0.000    0.000    0.000 c:\Virtual_Environments\theeng\lib\site-packages\plotly\validators\layout\template\data\_scatterpolar.py:1(<module>)
        1    0.000    0.000    0.000    0.000 c:\Virtual_Environments\theeng\lib\site-packages\plotly\validators\table\cells\_fill.py:1(<module>)
        1    0.000    0.000    0.000    0.000 c:\Virtual_Environments\theeng\lib\site-packages\plotly\validators\table\_header.py:1(<module>)
        1    0.000    0.000    0.000    0.000 c:\Virtual_Environments\theeng\lib\site-packages\plotly\validators\layout\colorscale\_sequentialminus.py:1(<module>)
        1    0.000    0.000    0.000    0.000 c:\Virtual_Environments\theeng\lib\site-packages\plotly\validators\layout\geo\_showland.py:1(<module>)
        1    0.000    0.000    0.000    0.000 c:\Virtual_Environments\theeng\lib\site-packages\plotly\validators\layout\polar\angularaxis\_ticks.py:1(<module>)
        1    0.000    0.000    0.000    0.000 c:\Virtual_Environments\theeng\lib\site-packages\plotly\validators\layout\polar\_bgcolor.py:1(<module>)
        1    0.000    0.000    0.000    0.000 c:\Virtual_Environments\theeng\lib\site-packages\plotly\validators\layout\scene\yaxis\_zerolinecolor.py:1(<module>)
        1    0.000    0.000    0.000    0.000 c:\Virtual_Environments\theeng\lib\site-packages\plotly\validators\layout\scene\zaxis\_linecolor.py:1(<module>)
        1    0.000    0.000    0.000    0.000 c:\Virtual_Environments\theeng\lib\site-packages\plotly\validators\layout\scene\zaxis\_showbackground.py:1(<module>)
        1    0.000    0.000    0.000    0.000 c:\Virtual_Environments\theeng\lib\site-packages\plotly\validators\layout\scene\zaxis\_ticks.py:1(<module>)
        1    0.000    0.000    0.000    0.000 c:\Virtual_Environments\theeng\lib\site-packages\plotly\validators\layout\ternary\baxis\_ticks.py:1(<module>)
        1    0.000    0.000    0.000    0.000 c:\Virtual_Environments\theeng\lib\site-packages\plotly\validators\layout\ternary\_bgcolor.py:1(<module>)
        1    0.000    0.000    0.000    0.000 c:\Virtual_Environments\theeng\lib\site-packages\plotly\validators\layout\ternary\caxis\_linecolor.py:1(<module>)
        1    0.000    0.000    0.000    0.000 c:\Virtual_Environments\theeng\lib\site-packages\plotly\validators\layout\yaxis\_automargin.py:1(<module>)
        1    0.000    0.000    0.000    0.000 c:\Virtual_Environments\theeng\lib\site-packages\plotly\validators\layout\yaxis\_zerolinewidth.py:1(<module>)
        1    0.000    0.000    0.000    0.000 c:\Virtual_Environments\theeng\lib\site-packages\pandas\core\dtypes\dtypes.py:1333(__init__)
        1    0.000    0.000    0.000    0.000 c:\Virtual_Environments\theeng\lib\site-packages\pandas\core\generic.py:1997(__contains__)
        2    0.000    0.000    0.000    0.000 c:\Virtual_Environments\theeng\lib\site-packages\pandas\core\indexes\numeric.py:192(_ensure_dtype)
        4    0.000    0.000    0.000    0.000 c:\Virtual_Environments\theeng\lib\site-packages\pandas\core\internals\concat.py:731(_next_or_none)
        1    0.000    0.000    0.000    0.000 c:\Virtual_Environments\theeng\lib\site-packages\pandas\core\internals\managers.py:564(<listcomp>)
        5    0.000    0.000    0.000    0.000 c:\Virtual_Environments\theeng\lib\site-packages\joblib\parallel.py:917(print_progress)
        2    0.000    0.000    0.000    0.000 c:\Virtual_Environments\theeng\lib\site-packages\sklearn\model_selection\_validation.py:1903(_aggregate_score_dicts)
        5    0.000    0.000    0.000    0.000 c:\Virtual_Environments\theeng\lib\site-packages\sklearn\utils\parallel.py:107(with_config)
        1    0.000    0.000    0.000    0.000 c:\Virtual_Environments\theeng\lib\site-packages\plotly\validators\layout\_minreducedheight.py:1(<module>)
        1    0.000    0.000    0.000    0.000 c:\Virtual_Environments\theeng\lib\site-packages\plotly\validators\layout\_updatemenudefaults.py:1(<module>)
        1    0.000    0.000    0.000    0.000 c:\Virtual_Environments\theeng\lib\site-packages\plotly\validators\layout\_activeselection.py:1(<module>)
        1    0.000    0.000    0.000    0.000 c:\Virtual_Environments\theeng\lib\site-packages\plotly\validators\barpolar\marker\line\_width.py:1(<module>)
        1    0.000    0.000    0.000    0.000 c:\Virtual_Environments\theeng\lib\site-packages\plotly\validators\histogram\marker\pattern\_solidity.py:1(<module>)
        1    0.000    0.000    0.000    0.000 c:\Virtual_Environments\theeng\lib\site-packages\plotly\validators\parcoords\line\colorbar\_ticks.py:1(<module>)
        1    0.000    0.000    0.000    0.000 c:\Virtual_Environments\theeng\lib\site-packages\plotly\validators\layout\ternary\_aaxis.py:1(<module>)
        1    0.000    0.000    0.000    0.000 c:\Virtual_Environments\theeng\lib\site-packages\plotly\validators\layout\yaxis\_zerolinecolor.py:1(<module>)
        1    0.000    0.000    0.000    0.000 c:\Virtual_Environments\theeng\lib\site-packages\plotly\validators\layout\coloraxis\_cmax.py:1(<module>)
        4    0.000    0.000    0.000    0.000 c:\Virtual_Environments\theeng\lib\site-packages\pandas\_config\config.py:627(_get_registered_option)
        8    0.000    0.000    0.000    0.000 c:\Virtual_Environments\theeng\lib\site-packages\pandas\core\common.py:196(<genexpr>)
        1    0.000    0.000    0.000    0.000 c:\Virtual_Environments\theeng\lib\site-packages\pandas\io\formats\console.py:65(check_main)
        2    0.000    0.000    0.000    0.000 c:\Virtual_Environments\theeng\lib\site-packages\pandas\core\generic.py:1955(__iter__)
        1    0.000    0.000    0.000    0.000 c:\Virtual_Environments\theeng\lib\site-packages\pandas\core\indexes\api.py:328(_sanitize_and_check)
        3    0.000    0.000    0.000    0.000 c:\Virtual_Environments\theeng\lib\site-packages\pandas\core\internals\managers.py:587(<listcomp>)
        1    0.000    0.000    0.000    0.000 c:\Virtual_Environments\theeng\lib\site-packages\pymoo\operators\sampling\rnd.py:12(random)
        3    0.000    0.000    0.000    0.000 c:\Virtual_Environments\theeng\lib\site-packages\theeng\core\problem.py:296(<listcomp>)
        3    0.000    0.000    0.000    0.000 {method 'copy' of 'collections.OrderedDict' objects}
        3    0.000    0.000    0.000    0.000 c:\Virtual_Environments\theeng\lib\site-packages\_plotly_utils\basevalidators.py:1935(validate_coerce)
        6    0.000    0.000    0.000    0.000 c:\Virtual_Environments\theeng\lib\site-packages\plotly\_subplots.py:442(<genexpr>)
        1    0.000    0.000    0.000    0.000 C:\Engineering Programs\FreeCAD 0.20\Mod\Fem\femsolver\calculix\write_constraint_tie.py:24(<module>)
        1    0.000    0.000    0.000    0.000 C:\Engineering Programs\FreeCAD 0.20\Mod\Fem\femsolver\solverbase.py:45(Proxy)
        1    0.000    0.000    0.000    0.000 c:\Virtual_Environments\theeng\lib\site-packages\plotly\validators\layout\_selections.py:1(<module>)
        1    0.000    0.000    0.000    0.000 c:\Virtual_Environments\theeng\lib\site-packages\plotly\validators\layout\_extendiciclecolors.py:1(<module>)
        1    0.000    0.000    0.000    0.000 c:\Virtual_Environments\theeng\lib\site-packages\pandas\util\_validators.py:128(_check_for_invalid_keys)
        1    0.000    0.000    0.000    0.000 c:\Virtual_Environments\theeng\lib\site-packages\pandas\util\_validators.py:449(validate_ascending)
        1    0.000    0.000    0.000    0.000 c:\Virtual_Environments\theeng\lib\site-packages\pymoo\core\duplicate.py:12(__init__)
        6    0.000    0.000    0.000    0.000 c:\Virtual_Environments\theeng\lib\site-packages\theeng\core\abstract.py:78(_checkExpressions)
        4    0.000    0.000    0.000    0.000 c:\Virtual_Environments\theeng\lib\site-packages\theeng\core\problem.py:116(getResultsExpressions)
        1    0.000    0.000    0.000    0.000 C:\Python38\lib\multiprocessing\context.py:233(get_context)
        1    0.000    0.000    0.000    0.000 c:\Virtual_Environments\theeng\lib\site-packages\_plotly_utils\basevalidators.py:2716(__init__)
        3    0.000    0.000    0.000    0.000 <string>:1(__new__)
        3    0.000    0.000    0.000    0.000 c:\Virtual_Environments\theeng\lib\site-packages\plotly\basedatatypes.py:1189(_selector_matches)
        8    0.000    0.000    0.000    0.000 c:\Virtual_Environments\theeng\lib\site-packages\plotly\basedatatypes.py:2974(_send_update_msg)
        1    0.000    0.000    0.003    0.003 c:\Virtual_Environments\theeng\lib\site-packages\plotly\graph_objs\_figure.py:825(add_trace)
        1    0.000    0.000    0.000    0.000 C:\Engineering Programs\FreeCAD 0.20\Mod\Fem\femsolver\calculix\tasks.py:138(Results)
        1    0.000    0.000    0.000    0.000 C:\Engineering Programs\FreeCAD 0.20\Mod\Fem\femsolver\calculix\write_constraint_initialtemperature.py:24(<module>)
        1    0.000    0.000    0.000    0.000 c:\Virtual_Environments\theeng\lib\site-packages\pymoo\decomposition\util.py:1(<module>)
        2    0.000    0.000    0.000    0.000 c:\Virtual_Environments\theeng\lib\site-packages\numpy\core\numerictypes.py:649(<listcomp>)
        1    0.000    0.000    0.000    0.000 C:\Python38\lib\typing.py:720(__hash__)
        1    0.000    0.000    0.000    0.000 C:\Python38\lib\queue.py:205(_init)
        2    0.000    0.000    0.000    0.000 c:\Virtual_Environments\theeng\lib\site-packages\pandas\core\dtypes\cast.py:1536(common_dtype_categorical_compat)
        1    0.000    0.000    0.000    0.000 c:\Virtual_Environments\theeng\lib\site-packages\pandas\core\ops\__init__.py:152(align_method_SERIES)
        1    0.000    0.000    0.000    0.000 c:\Virtual_Environments\theeng\lib\site-packages\pandas\core\frame.py:1045(_info_repr)
        4    0.000    0.000    0.000    0.000 c:\Virtual_Environments\theeng\lib\site-packages\pandas\core\generic.py:5876(<genexpr>)
        1    0.000    0.000    0.000    0.000 c:\Virtual_Environments\theeng\lib\site-packages\pymoo\core\infill.py:8(__init__)
        3    0.000    0.000    0.000    0.000 c:\Virtual_Environments\theeng\lib\site-packages\theeng\core\problem.py:172(getConstraintsExpressions)
        1    0.000    0.000    0.000    0.000 c:\Virtual_Environments\theeng\lib\site-packages\joblib\_parallel_backends.py:185(in_main_thread)
        1    0.000    0.000    0.000    0.000 C:\Engineering Programs\FreeCAD 0.20\Mod\Fem\femsolver\calculix\write_constraint_heatflux.py:24(<module>)
        1    0.000    0.000    0.000    0.000 C:\Engineering Programs\FreeCAD 0.20\Mod\Fem\femsolver\calculix\write_constraint_selfweight.py:24(<module>)
        1    0.000    0.000    0.000    0.000 C:\Engineering Programs\FreeCAD 0.20\Mod\Fem\femsolver\run.py:419(Check)
        1    0.000    0.000    0.000    0.000 c:\Virtual_Environments\theeng\lib\site-packages\pymoo\util\ref_dirs\optimizer.py:30(Adam)
        9    0.000    0.000    0.000    0.000 c:\Virtual_Environments\theeng\lib\site-packages\numpy\lib\index_tricks.py:782(_fill_diagonal_dispatcher)
        1    0.000    0.000    0.000    0.000 <__array_function__ internals>:177(column_stack)
        2    0.000    0.000    0.000    0.000 c:\Virtual_Environments\theeng\lib\site-packages\pandas\_config\config.py:837(inner)
        6    0.000    0.000    0.000    0.000 c:\Virtual_Environments\theeng\lib\site-packages\pandas\core\indexes\base.py:2017(nlevels)
        1    0.000    0.000    0.000    0.000 c:\Virtual_Environments\theeng\lib\site-packages\pandas\core\generic.py:11777(sum)
        1    0.000    0.000    0.000    0.000 c:\Virtual_Environments\theeng\lib\site-packages\pymoo\core\survival.py:15(__init__)
        1    0.000    0.000    0.000    0.000 {method 'index' of 'str' objects}
        2    0.000    0.000    0.000    0.000 {method 'add' of 'pandas._libs.internals.BlockPlacement' objects}
        1    0.000    0.000    0.000    0.000 c:\Virtual_Environments\theeng\lib\site-packages\plotly\express\_core.py:1961(<listcomp>)
        3    0.000    0.000    0.000    0.000 c:\Virtual_Environments\theeng\lib\site-packages\plotly\basedatatypes.py:2315(_validate_get_grid_ref)
        1    0.000    0.000    0.000    0.000 C:\Engineering Programs\FreeCAD 0.20\Mod\Fem\femsolver\calculix\write_constraint_force.py:24(<module>)
        1    0.000    0.000    0.000    0.000 C:\Engineering Programs\FreeCAD 0.20\Mod\Fem\femtools\constants.py:23(<module>)
        1    0.000    0.000    0.000    0.000 c:\Virtual_Environments\theeng\lib\site-packages\pymoo\util\ref_dirs\optimizer.py:20(GradientDescent)
        1    0.000    0.000    0.003    0.003 c:\Virtual_Environments\theeng\lib\site-packages\plotly\graph_objs\scatter\_marker.py:1076(symbol)
        2    0.000    0.000    0.000    0.000 c:\Virtual_Environments\theeng\lib\site-packages\numpy\core\multiarray.py:420(lexsort)
        8    0.000    0.000    0.000    0.000 c:\Virtual_Environments\theeng\lib\site-packages\numpy\core\shape_base.py:19(_atleast_1d_dispatcher)
        4    0.000    0.000    0.000    0.000 c:\Virtual_Environments\theeng\lib\site-packages\pandas\core\dtypes\cast.py:1630(<genexpr>)
        4    0.000    0.000    0.000    0.000 c:\Virtual_Environments\theeng\lib\site-packages\pandas\core\groupby\groupby.py:734(<genexpr>)
        1    0.000    0.000    0.000    0.000 c:\Virtual_Environments\theeng\lib\site-packages\pandas\core\indexes\range.py:930(<listcomp>)
        2    0.000    0.000    0.000    0.000 c:\Virtual_Environments\theeng\lib\site-packages\pandas\core\internals\managers.py:2381(<listcomp>)
        1    0.000    0.000    0.000    0.000 c:\Virtual_Environments\theeng\lib\site-packages\theeng\core\optimizer.py:158(__init__)
        1    0.000    0.000    0.000    0.000 c:\Virtual_Environments\theeng\lib\site-packages\pymoo\core\evaluator.py:10(__init__)
        1    0.000    0.000    0.000    0.000 c:\Virtual_Environments\theeng\lib\site-packages\theeng\core\problem.py:45(setContraints)
        3    0.000    0.000    0.000    0.000 {built-in method pandas._libs.internals.slice_len}
        3    0.000    0.000    0.000    0.000 c:\Virtual_Environments\theeng\lib\site-packages\plotly\_subplots.py:1254(_pad)
        1    0.000    0.000    0.000    0.000 C:\Engineering Programs\FreeCAD 0.20\Mod\Fem\femsolver\report.py:65(Report)
        2    0.000    0.000    0.001    0.001 c:\Virtual_Environments\theeng\lib\site-packages\plotly\graph_objs\_layout.py:977(colorway)
        2    0.000    0.000    0.000    0.000 c:\Virtual_Environments\theeng\lib\site-packages\plotly\graph_objs\_parcoords.py:217(domain)
        2    0.000    0.000    0.000    0.000 C:\Python38\lib\typing.py:685(<genexpr>)
        6    0.000    0.000    0.000    0.000 c:\Virtual_Environments\theeng\lib\site-packages\pandas\core\common.py:182(<genexpr>)
        2    0.000    0.000    0.000    0.000 c:\Virtual_Environments\theeng\lib\site-packages\pandas\core\indexes\base.py:4301(_validate_can_reindex)
        2    0.000    0.000    0.000    0.000 c:\Virtual_Environments\theeng\lib\site-packages\pandas\core\indexes\api.py:316(<genexpr>)
        4    0.000    0.000    0.000    0.000 c:\Virtual_Environments\theeng\lib\site-packages\pandas\core\indexes\range.py:247(start)
        6    0.000    0.000    0.000    0.000 c:\Virtual_Environments\theeng\lib\site-packages\pandas\core\indexes\range.py:378(inferred_type)
        2    0.000    0.000    0.000    0.000 c:\Virtual_Environments\theeng\lib\site-packages\pandas\core\indexes\numeric.py:181(_validate_dtype)
        2    0.000    0.000    0.000    0.000 c:\Virtual_Environments\theeng\lib\site-packages\pandas\core\reshape\concat.py:625(_get_result_dim)
        1    0.000    0.000    0.000    0.000 c:\Virtual_Environments\theeng\lib\site-packages\pandas\core\internals\managers.py:2073(array_values)
        1    0.000    0.000    0.000    0.000 c:\Virtual_Environments\theeng\lib\site-packages\pandas\core\groupby\ops.py:903(names)
        4    0.000    0.000    0.000    0.000 c:\Virtual_Environments\theeng\lib\site-packages\theeng\core\problem.py:92(getObjectives)
        4    0.000    0.000    0.000    0.000 c:\Virtual_Environments\theeng\lib\site-packages\theeng\core\problem.py:164(getObjectivesExpressions)
        1    0.000    0.000    0.000    0.000 c:\Virtual_Environments\theeng\lib\site-packages\joblib\logger.py:23(_squeeze_time)
        1    0.000    0.000    0.000    0.000 c:\Virtual_Environments\theeng\lib\site-packages\joblib\_parallel_backends.py:70(configure)
        1    0.000    0.000    0.000    0.000 c:\Virtual_Environments\theeng\lib\site-packages\sklearn\metrics\_scorer.py:595(<dictcomp>)
        2    0.000    0.000    0.000    0.000 c:\Virtual_Environments\theeng\lib\site-packages\plotly\basedatatypes.py:2829(frames)
        2    0.000    0.000    0.001    0.000 c:\Virtual_Environments\theeng\lib\site-packages\_plotly_utils\utils.py:268(_natural_sort_strings)
        1    0.000    0.000    0.000    0.000 C:\Engineering Programs\FreeCAD 0.20\Mod\Fem\femsolver\calculix\write_femelement_geometry.py:24(<module>)
        1    0.000    0.000    0.000    0.000 C:\Engineering Programs\FreeCAD 0.20\Mod\Fem\femsolver\run.py:309(BaseTask)
        1    0.000    0.000    0.000    0.000 C:\Engineering Programs\FreeCAD 0.20\Mod\Fem\femobjects\result_mechanical.py:36(ResultMechanical)
        1    0.000    0.000    0.000    0.000 c:\Virtual_Environments\theeng\lib\site-packages\pymoo\util\reference_direction.py:26(ReferenceDirectionFactory)
        1    0.000    0.000    0.000    0.000 c:\Virtual_Environments\theeng\lib\site-packages\plotly\validators\layout\_iciclecolorway.py:4(IciclecolorwayValidator)
        1    0.000    0.000    0.000    0.000 c:\Virtual_Environments\theeng\lib\site-packages\plotly\validators\scatter\_mode.py:4(ModeValidator)
        1    0.000    0.000    0.000    0.000 C:\Python38\lib\webbrowser.py:205(UnixBrowser)
        1    0.000    0.000    0.000    0.000 C:\Python38\lib\os.py:1073(__subclasshook__)
        4    0.000    0.000    0.000    0.000 c:\Virtual_Environments\theeng\lib\site-packages\numpy\core\fromnumeric.py:874(_sort_dispatcher)
        3    0.000    0.000    0.000    0.000 c:\Virtual_Environments\theeng\lib\site-packages\pandas\core\dtypes\concat.py:113(<genexpr>)
        1    0.000    0.000    0.000    0.000 c:\Virtual_Environments\theeng\lib\site-packages\pandas\core\ops\common.py:77(get_op_result_name)
        1    0.000    0.000    0.000    0.000 c:\Virtual_Environments\theeng\lib\site-packages\pandas\core\ops\common.py:99(_maybe_match_name)
        1    0.000    0.000    0.000    0.000 c:\Virtual_Environments\theeng\lib\site-packages\pandas\core\indexes\api.py:268(<listcomp>)
        4    0.000    0.000    0.000    0.000 c:\Virtual_Environments\theeng\lib\site-packages\pandas\core\indexes\range.py:270(stop)
        1    0.000    0.000    0.000    0.000 c:\Virtual_Environments\theeng\lib\site-packages\pandas\io\formats\format.py:691(_initialize_columns)
        1    0.000    0.000    0.000    0.000 c:\Virtual_Environments\theeng\lib\site-packages\pandas\core\series.py:743(array)
        1    0.000    0.000    0.000    0.000 c:\Virtual_Environments\theeng\lib\site-packages\pandas\core\groupby\grouper.py:569(name)
        1    0.000    0.000    0.000    0.000 c:\Virtual_Environments\theeng\lib\site-packages\pandas\core\groupby\grouper.py:639(result_index)
        4    0.000    0.000    0.000    0.000 c:\Virtual_Environments\theeng\lib\site-packages\theeng\core\problem.py:100(getConstraints)
        6    0.000    0.000    0.000    0.000 c:\Virtual_Environments\theeng\lib\site-packages\sklearn\utils\_param_validation.py:272(is_satisfied_by)
        3    0.000    0.000    0.000    0.000 c:\Virtual_Environments\theeng\lib\site-packages\sklearn\model_selection\_validation.py:1927(<listcomp>)
        3    0.000    0.000    0.000    0.000 c:\Virtual_Environments\theeng\lib\site-packages\plotly\basedatatypes.py:294(<genexpr>)
        1    0.000    0.000    0.000    0.000 c:\Virtual_Environments\theeng\lib\site-packages\plotly\basedatatypes.py:292(_is_select_subplot_coordinates_arg)
        1    0.000    0.000    0.000    0.000 C:\Engineering Programs\FreeCAD 0.20\Mod\Fem\femsolver\signal.py:24(<module>)
        1    0.000    0.000    0.000    0.000 C:\Engineering Programs\FreeCAD 0.20\Mod\Fem\femobjects\material_common.py:50(add_properties)
        1    0.000    0.000    0.000    0.000 c:\Virtual_Environments\theeng\lib\site-packages\pandas\io\formats\string.py:23(__init__)
        1    0.000    0.000    0.000    0.000 c:\Virtual_Environments\theeng\lib\site-packages\pymoo\util\ref_dirs\construction.py:25(ConstructionBasedReferenceDirectionFactory)
        1    0.000    0.000    0.000    0.000 c:\Virtual_Environments\theeng\lib\site-packages\pymoo\util\reference_direction.py:143(_do)
        1    0.000    0.000    0.000    0.000 C:\Python38\lib\_collections_abc.py:367(__subclasshook__)
        6    0.000    0.000    0.000    0.000 c:\Virtual_Environments\theeng\lib\site-packages\numpy\core\fromnumeric.py:2600(_ptp_dispatcher)
        1    0.000    0.000    0.000    0.000 c:\Virtual_Environments\theeng\lib\site-packages\pandas\core\dtypes\cast.py:508(ensure_dtype_can_hold_na)
        2    0.000    0.000    0.000    0.000 c:\Virtual_Environments\theeng\lib\site-packages\pandas\core\common.py:178(not_none)
        1    0.000    0.000    0.000    0.000 c:\Virtual_Environments\theeng\lib\site-packages\pandas\core\arrays\numpy_.py:125(__array__)
        4    0.000    0.000    0.000    0.000 c:\Virtual_Environments\theeng\lib\site-packages\pandas\core\internals\construction.py:481(<listcomp>)
        6    0.000    0.000    0.000    0.000 c:\Virtual_Environments\theeng\lib\site-packages\pandas\core\groupby\ops.py:762(groupings)
        1    0.000    0.000    0.000    0.000 c:\Virtual_Environments\theeng\lib\site-packages\pymoo\operators\sampling\rnd.py:18(_do)
        1    0.000    0.000    0.001    0.001 c:\Virtual_Environments\theeng\lib\site-packages\scipy\stats\_qmc.py:1231(_random)
        1    0.000    0.000    0.000    0.000 c:\Virtual_Environments\theeng\lib\site-packages\sklearn\model_selection\_validation.py:346(_warn_or_raise_about_fit_failures)
        1    0.000    0.000    0.000    0.000 c:\Virtual_Environments\theeng\lib\site-packages\plotly\express\_core.py:1972(<listcomp>)
        2    0.000    0.000    0.000    0.000 c:\Virtual_Environments\theeng\lib\site-packages\plotly\express\_core.py:2178(<listcomp>)
        3    0.000    0.000    0.000    0.000 c:\Virtual_Environments\theeng\lib\site-packages\plotly\basedatatypes.py:1243(_filt)
        1    0.000    0.000    0.000    0.000 C:\Engineering Programs\FreeCAD 0.20\Mod\Fem\femobjects\solver_ccxtools.py:39(SolverCcxTools)
        1    0.000    0.000    0.000    0.000 C:\Engineering Programs\FreeCAD 0.20\Mod\Fem\femobjects\base_fempythonobject.py:34(BaseFemPythonObject)
        1    0.000    0.000    0.000    0.000 C:\Engineering Programs\FreeCAD 0.20\Mod\Fem\femsolver\calculix\write_step_output.py:24(<module>)
        1    0.000    0.000    0.000    0.000 C:\Python38\lib\webbrowser.py:139(BaseBrowser)
        1    0.000    0.000    0.000    0.000 c:\Virtual_Environments\theeng\lib\site-packages\plotly\validator_cache.py:5(ValidatorCache)
        1    0.000    0.000    0.000    0.000 c:\Virtual_Environments\theeng\lib\site-packages\plotly\validators\heatmap\_name.py:4(NameValidator)
        1    0.000    0.000    0.000    0.000 c:\Virtual_Environments\theeng\lib\site-packages\plotly\validators\layout\scene\zaxis\_gridwidth.py:4(GridwidthValidator)
        4    0.000    0.000    0.000    0.000 c:\Virtual_Environments\theeng\lib\site-packages\numpy\core\fromnumeric.py:3340(_mean_dispatcher)
        3    0.000    0.000    0.000    0.000 c:\Virtual_Environments\theeng\lib\site-packages\numpy\lib\function_base.py:1316(_diff_dispatcher)
        1    0.000    0.000    0.000    0.000 c:\Virtual_Environments\theeng\lib\site-packages\pandas\core\dtypes\concat.py:103(<listcomp>)
        2    0.000    0.000    0.000    0.000 c:\Virtual_Environments\theeng\lib\site-packages\pandas\core\dtypes\concat.py:110(<genexpr>)
        3    0.000    0.000    0.000    0.000 c:\Virtual_Environments\theeng\lib\site-packages\pandas\core\dtypes\concat.py:117(<genexpr>)
        1    0.000    0.000    0.000    0.000 c:\Virtual_Environments\theeng\lib\site-packages\pandas\util\_validators.py:49(_check_for_default_values)
        3    0.000    0.000    0.000    0.000 c:\Virtual_Environments\theeng\lib\site-packages\pandas\core\ops\__init__.py:277(<genexpr>)
        1    0.000    0.000    0.000    0.000 c:\Virtual_Environments\theeng\lib\site-packages\pandas\core\sorting.py:629(<listcomp>)
        1    0.000    0.000    0.000    0.000 c:\Virtual_Environments\theeng\lib\site-packages\pandas\core\indexes\base.py:7451(<listcomp>)
        4    0.000    0.000    0.000    0.000 c:\Virtual_Environments\theeng\lib\site-packages\pandas\core\indexes\range.py:293(step)
        1    0.000    0.000    0.000    0.000 c:\Virtual_Environments\theeng\lib\site-packages\pandas\io\formats\format.py:625(should_show_dimensions)
        1    0.000    0.000    0.000    0.000 c:\Virtual_Environments\theeng\lib\site-packages\joblib\parallel.py:797(_terminate_backend)
        5    0.000    0.000    0.000    0.000 c:\Virtual_Environments\theeng\lib\site-packages\joblib\_parallel_backends.py:93(batch_completed)
        1    0.000    0.000    0.000    0.000 c:\Virtual_Environments\theeng\lib\site-packages\sklearn\model_selection\_validation.py:337(_normalize_score_results)
        2    0.000    0.000    0.000    0.000 c:\Virtual_Environments\theeng\lib\site-packages\sklearn\model_selection\_validation.py:1929(<listcomp>)
        1    0.000    0.000    0.000    0.000 C:\Engineering Programs\FreeCAD 0.20\Mod\Fem\femobjects\material_common.py:36(MaterialCommon)
        1    0.000    0.000    0.000    0.000 C:\Engineering Programs\FreeCAD 0.20\Mod\Fem\femobjects\mesh_result.py:35(MeshResult)
        1    0.000    0.000    0.000    0.000 c:\Virtual_Environments\theeng\lib\site-packages\pymoo\util\ref_dirs\energy_layer.py:11(LayerwiseRieszEnergyReferenceDirectionFactory)
        1    0.000    0.000    0.000    0.000 c:\Virtual_Environments\theeng\lib\site-packages\pymoo\util\ref_dirs\reduction.py:67(h)
        1    0.000    0.000    0.000    0.000 c:\Virtual_Environments\theeng\lib\site-packages\pymoo\util\ref_dirs\optimizer.py:4(Optimizer)
        1    0.000    0.000    0.000    0.000 c:\Virtual_Environments\theeng\lib\site-packages\plotly\validators\layout\_sunburstcolorway.py:4(SunburstcolorwayValidator)
        1    0.000    0.000    0.000    0.000 c:\Virtual_Environments\theeng\lib\site-packages\plotly\validators\heatmapgl\colorbar\_outlinewidth.py:4(OutlinewidthValidator)
        1    0.000    0.000    0.000    0.000 c:\Virtual_Environments\theeng\lib\site-packages\plotly\validators\parcoords\_name.py:4(NameValidator)
        1    0.000    0.000    0.000    0.000 c:\Virtual_Environments\theeng\lib\site-packages\plotly\validators\layout\coloraxis\_colorbar.py:4(ColorbarValidator)
        1    0.000    0.000    0.000    0.000 C:\Python38\lib\_collections_abc.py:252(__subclasshook__)
        1    0.000    0.000    0.000    0.000 c:\Virtual_Environments\theeng\lib\site-packages\pandas\core\sorting.py:227(is_int64_overflow_possible)
        2    0.000    0.000    0.000    0.000 c:\Virtual_Environments\theeng\lib\site-packages\pandas\io\formats\format.py:769(_is_in_terminal)
        4    0.000    0.000    0.000    0.000 c:\Virtual_Environments\theeng\lib\site-packages\pandas\core\internals\construction.py:482(<listcomp>)
        2    0.000    0.000    0.000    0.000 c:\Virtual_Environments\theeng\lib\site-packages\pandas\core\groupby\grouper.py:804(<genexpr>)
        1    0.000    0.000    0.000    0.000 c:\Virtual_Environments\theeng\lib\site-packages\pandas\core\groupby\grouper.py:840(is_in_axis)
        2    0.000    0.000    0.000    0.000 c:\Virtual_Environments\theeng\lib\site-packages\theeng\core\problem.py:156(getNvar)
        1    0.000    0.000    0.000    0.000 C:\Python38\lib\multiprocessing\process.py:198(daemon)
        2    0.000    0.000    0.000    0.000 {method 'translate' of 'bytearray' objects}
        5    0.000    0.000    0.000    0.000 {function FrozenList.__getitem__ at 0x0000013DF534B430}
        1    0.000    0.000    0.000    0.000 c:\Virtual_Environments\theeng\lib\site-packages\sklearn\pipeline.py:294(_estimator_type)
        1    0.000    0.000    0.000    0.000 c:\Virtual_Environments\theeng\lib\site-packages\plotly\express\_core.py:1958(<listcomp>)
        3    0.000    0.000    0.000    0.000 c:\Virtual_Environments\theeng\lib\site-packages\plotly\basedatatypes.py:2959(_send_addTraces_msg)
        1    0.000    0.000    0.000    0.000 C:\Engineering Programs\FreeCAD 0.20\Mod\Fem\femsolver\calculix\writer.py:106(FemInputWriterCcx)
        1    0.000    0.000    0.000    0.000 C:\Engineering Programs\FreeCAD 0.20\Mod\Fem\femsolver\task.py:124(Thread)
        1    0.000    0.000    0.000    0.000 c:\Virtual_Environments\theeng\lib\site-packages\pymoo\termination\fmin.py:4(MinimumFunctionValueTermination)
        1    0.000    0.000    0.000    0.000 c:\Virtual_Environments\theeng\lib\site-packages\pymoo\util\reference_direction.py:152(MultiLayerReferenceDirectionFactory)
        1    0.000    0.000    0.000    0.000 c:\Virtual_Environments\theeng\lib\site-packages\plotly\validators\layout\_grid.py:4(GridValidator)
        1    0.000    0.000    0.000    0.000 c:\Virtual_Environments\theeng\lib\site-packages\plotly\validators\layout\_editrevision.py:4(EditrevisionValidator)
        1    0.000    0.000    0.000    0.000 c:\Virtual_Environments\theeng\lib\site-packages\plotly\validators\layout\_ternary.py:4(TernaryValidator)
        1    0.000    0.000    0.000    0.000 c:\Virtual_Environments\theeng\lib\site-packages\plotly\validators\layout\_funnelgap.py:4(FunnelgapValidator)
        1    0.000    0.000    0.000    0.000 c:\Virtual_Environments\theeng\lib\site-packages\plotly\validators\layout\legend\title\_text.py:4(TextValidator)
        1    0.000    0.000    0.000    0.000 c:\Virtual_Environments\theeng\lib\site-packages\plotly\validators\barpolar\marker\pattern\_size.py:4(SizeValidator)
        1    0.000    0.000    0.000    0.000 c:\Virtual_Environments\theeng\lib\site-packages\plotly\validators\carpet\aaxis\_linecolor.py:4(LinecolorValidator)
        1    0.000    0.000    0.000    0.000 c:\Virtual_Environments\theeng\lib\site-packages\plotly\validators\histogram2dcontour\colorbar\_outlinewidth.py:4(OutlinewidthValidator)
        1    0.000    0.000    0.000    0.000 c:\Virtual_Environments\theeng\lib\site-packages\plotly\validators\layout\_hoverdistance.py:4(HoverdistanceValidator)
        1    0.000    0.000    0.000    0.000 c:\Virtual_Environments\theeng\lib\site-packages\plotly\validators\layout\template\data\_parcoords.py:4(ParcoordsValidator)
        1    0.000    0.000    0.000    0.000 c:\Virtual_Environments\theeng\lib\site-packages\plotly\validators\scatterpolar\marker\_colorbar.py:4(ColorbarValidator)
        1    0.000    0.000    0.000    0.000 c:\Virtual_Environments\theeng\lib\site-packages\plotly\validators\layout\scene\yaxis\_backgroundcolor.py:4(BackgroundcolorValidator)
        1    0.000    0.000    0.000    0.000 c:\Virtual_Environments\theeng\lib\site-packages\plotly\validators\layout\yaxis\_constrain.py:4(ConstrainValidator)
        2    0.000    0.000    0.000    0.000 c:\Virtual_Environments\theeng\lib\site-packages\pandas\core\dtypes\concat.py:92(is_nonempty)
        1    0.000    0.000    0.000    0.000 c:\Virtual_Environments\theeng\lib\site-packages\pandas\core\apply.py:723(values)
        1    0.000    0.000    0.000    0.000 c:\Virtual_Environments\theeng\lib\site-packages\pandas\core\frame.py:7674(_combine_frame)
        1    0.000    0.000    0.000    0.000 c:\Virtual_Environments\theeng\lib\site-packages\pandas\core\generic.py:558(_get_axis_name)
        1    0.000    0.000    0.000    0.000 c:\Virtual_Environments\theeng\lib\site-packages\scipy\linalg\blas.py:308(<listcomp>)
        2    0.000    0.000    0.000    0.000 c:\Virtual_Environments\theeng\lib\site-packages\pandas\core\reshape\concat.py:701(_maybe_check_integrity)
        3    0.000    0.000    0.000    0.000 c:\Virtual_Environments\theeng\lib\site-packages\pandas\core\internals\concat.py:647(<genexpr>)
        1    0.000    0.000    0.000    0.000 c:\Virtual_Environments\theeng\lib\site-packages\pandas\core\groupby\ops.py:863(<listcomp>)
        5    0.000    0.000    0.000    0.000 c:\Virtual_Environments\theeng\lib\site-packages\joblib\parallel.py:242(__enter__)
        6    0.000    0.000    0.000    0.000 c:\Virtual_Environments\theeng\lib\site-packages\joblib\_parallel_backends.py:89(compute_batch_size)
        2    0.000    0.000    0.000    0.000 c:\Virtual_Environments\theeng\lib\site-packages\sklearn\metrics\_scorer.py:588(<genexpr>)
        3    0.000    0.000    0.000    0.000 c:\Virtual_Environments\theeng\lib\site-packages\plotly\basedatatypes.py:3291(<listcomp>)
        4    0.000    0.000    0.000    0.000 C:\Engineering Programs\FreeCAD 0.20\Mod\Fem\femobjects\base_fempythonobject.py:48(__setstate__)
        1    0.000    0.000    0.000    0.000 C:\Engineering Programs\FreeCAD 0.20\Mod\Fem\femsolver\calculix\tasks.py:51(Check)
        1    0.000    0.000    0.000    0.000 C:\Engineering Programs\FreeCAD 0.20\Mod\Fem\femsolver\solverbase.py:76(ViewProxy)
        1    0.000    0.000    0.000    0.000 c:\Virtual_Environments\theeng\lib\site-packages\pandas\io\formats\string.py:64(_need_to_wrap_around)
        1    0.000    0.000    0.000    0.000 c:\Virtual_Environments\theeng\lib\site-packages\pymoo\termination\max_time.py:7(TimeBasedTermination)
        1    0.000    0.000    0.000    0.000 c:\Virtual_Environments\theeng\lib\site-packages\pymoo\util\reference_direction.py:118(UniformReferenceDirectionFactory)
        1    0.000    0.000    0.000    0.000 c:\Virtual_Environments\theeng\lib\site-packages\plotly\validators\layout\yaxis\title\_text.py:4(TextValidator)
        1    0.000    0.000    0.000    0.000 c:\Virtual_Environments\theeng\lib\site-packages\plotly\validators\layout\_waterfallgroupgap.py:4(WaterfallgroupgapValidator)
        1    0.000    0.000    0.000    0.000 c:\Virtual_Environments\theeng\lib\site-packages\plotly\validators\layout\_legend.py:4(LegendValidator)
        1    0.000    0.000    0.000    0.000 c:\Virtual_Environments\theeng\lib\site-packages\plotly\validators\heatmap\_x.py:4(XValidator)
        1    0.000    0.000    0.000    0.000 c:\Virtual_Environments\theeng\lib\site-packages\plotly\validators\barpolar\marker\pattern\_fillmode.py:4(FillmodeValidator)
        1    0.000    0.000    0.000    0.000 c:\Virtual_Environments\theeng\lib\site-packages\plotly\validators\bar\marker\line\_width.py:4(WidthValidator)
        1    0.000    0.000    0.000    0.000 c:\Virtual_Environments\theeng\lib\site-packages\plotly\validators\bar\marker\pattern\_size.py:4(SizeValidator)
        1    0.000    0.000    0.000    0.000 c:\Virtual_Environments\theeng\lib\site-packages\plotly\validators\carpet\baxis\_minorgridcolor.py:4(MinorgridcolorValidator)
        1    0.000    0.000    0.000    0.000 c:\Virtual_Environments\theeng\lib\site-packages\plotly\validators\layout\template\data\_histogram2dcontour.py:4(Histogram2DcontourValidator)
        1    0.000    0.000    0.000    0.000 c:\Virtual_Environments\theeng\lib\site-packages\plotly\validators\histogram2d\_colorscale.py:4(ColorscaleValidator)
        1    0.000    0.000    0.000    0.000 C:\Python38\lib\webbrowser.py:305(Galeon)
        1    0.000    0.000    0.000    0.000 c:\Virtual_Environments\theeng\lib\site-packages\plotly\validators\layout\_sliderdefaults.py:4(SliderdefaultsValidator)
        1    0.000    0.000    0.000    0.000 c:\Virtual_Environments\theeng\lib\site-packages\plotly\validators\layout\annotation\_arrowcolor.py:4(ArrowcolorValidator)
        1    0.000    0.000    0.000    0.000 c:\Virtual_Environments\theeng\lib\site-packages\plotly\validators\layout\annotation\_arrowwidth.py:4(ArrowwidthValidator)
        1    0.000    0.000    0.000    0.000 c:\Virtual_Environments\theeng\lib\site-packages\plotly\validators\scatter3d\marker\colorbar\_outlinewidth.py:4(OutlinewidthValidator)
        1    0.000    0.000    0.000    0.000 c:\Virtual_Environments\theeng\lib\site-packages\plotly\validators\parcoords\_dimensions.py:4(DimensionsValidator)
        1    0.000    0.000    0.000    0.000 c:\Virtual_Environments\theeng\lib\site-packages\plotly\validators\table\cells\fill\_color.py:4(ColorValidator)
        1    0.000    0.000    0.000    0.000 c:\Virtual_Environments\theeng\lib\site-packages\plotly\validators\table\header\fill\_color.py:4(ColorValidator)
        1    0.000    0.000    0.000    0.000 c:\Virtual_Environments\theeng\lib\site-packages\plotly\validators\layout\scene\yaxis\_gridcolor.py:4(GridcolorValidator)
        1    0.000    0.000    0.000    0.000 c:\Virtual_Environments\theeng\lib\site-packages\plotly\validators\layout\scene\yaxis\_showbackground.py:4(ShowbackgroundValidator)
        1    0.000    0.000    0.000    0.000 c:\Virtual_Environments\theeng\lib\site-packages\plotly\validators\layout\scene\zaxis\_ticks.py:4(TicksValidator)
        1    0.000    0.000    0.000    0.000 c:\Virtual_Environments\theeng\lib\site-packages\plotly\validators\layout\ternary\aaxis\_ticks.py:4(TicksValidator)
        1    0.000    0.000    0.000    0.000 c:\Virtual_Environments\theeng\lib\site-packages\plotly\validators\layout\xaxis\title\_standoff.py:4(StandoffValidator)
        1    0.000    0.000    0.000    0.000 c:\Virtual_Environments\theeng\lib\site-packages\plotly\validators\layout\xaxis\_zerolinewidth.py:4(ZerolinewidthValidator)
        1    0.000    0.000    0.000    0.000 c:\Virtual_Environments\theeng\lib\site-packages\plotly\validators\layout\yaxis\_ticks.py:4(TicksValidator)
        1    0.000    0.000    0.000    0.000 c:\Virtual_Environments\theeng\lib\site-packages\plotly\validators\layout\yaxis\_zerolinewidth.py:4(ZerolinewidthValidator)
        1    0.000    0.000    0.000    0.000 c:\Virtual_Environments\theeng\lib\site-packages\plotly\validators\parcoords\domain\_x.py:4(XValidator)
        4    0.000    0.000    0.000    0.000 c:\Virtual_Environments\theeng\lib\site-packages\numpy\core\numeric.py:2403(_array_equal_dispatcher)
        2    0.000    0.000    0.000    0.000 c:\Virtual_Environments\theeng\lib\site-packages\pandas\_config\config.py:849(inner)
        1    0.000    0.000    0.000    0.000 c:\Virtual_Environments\theeng\lib\site-packages\pandas\core\apply.py:1042(result_index)
        1    0.000    0.000    0.000    0.000 c:\Virtual_Environments\theeng\lib\site-packages\pandas\core\groupby\groupby.py:745(_selected_obj)
        1    0.000    0.000    0.000    0.000 c:\Virtual_Environments\theeng\lib\site-packages\pandas\io\formats\format.py:685(_initialize_justify)
        2    0.000    0.000    0.000    0.000 c:\Virtual_Environments\theeng\lib\site-packages\pandas\core\groupby\grouper.py:805(<genexpr>)
        2    0.000    0.000    0.000    0.000 c:\Virtual_Environments\theeng\lib\site-packages\pandas\core\groupby\grouper.py:806(<genexpr>)
        1    0.000    0.000    0.000    0.000 c:\Virtual_Environments\theeng\lib\site-packages\theeng\algorithms\samplers.py:5(__init__)
        2    0.000    0.000    0.000    0.000 c:\Virtual_Environments\theeng\lib\site-packages\joblib\parallel.py:904(_print)
        1    0.000    0.000    0.000    0.000 c:\Virtual_Environments\theeng\lib\site-packages\sklearn\model_selection\_validation.py:347(<listcomp>)
        5    0.000    0.000    0.000    0.000 {method 'popleft' of 'collections.deque' objects}
        2    0.000    0.000    0.000    0.000 c:\Virtual_Environments\theeng\lib\site-packages\plotly\express\_core.py:1020(_is_col_list)
        1    0.000    0.000    0.000    0.000 c:\Virtual_Environments\theeng\lib\site-packages\plotly\express\_core.py:1977(<listcomp>)
        3    0.000    0.000    0.000    0.000 c:\Virtual_Environments\theeng\lib\site-packages\plotly\basedatatypes.py:534(<listcomp>)
        2    0.000    0.000    0.000    0.000 c:\Virtual_Environments\theeng\lib\site-packages\plotly\basedatatypes.py:1428(<lambda>)
        2    0.000    0.000    0.000    0.000 c:\Virtual_Environments\theeng\lib\site-packages\plotly\basedatatypes.py:3950(<listcomp>)
        1    0.000    0.000    0.000    0.000 c:\Virtual_Environments\theeng\lib\site-packages\plotly\validators\layout\_colorway.py:4(ColorwayValidator)
        1    0.000    0.000    0.000    0.000 c:\Virtual_Environments\theeng\lib\site-packages\plotly\validators\layout\template\_data.py:4(DataValidator)
        1    0.000    0.000    0.000    0.000 c:\Virtual_Environments\theeng\lib\site-packages\plotly\graph_objs\_layout.py:860(coloraxis)
        1    0.000    0.000    0.000    0.000 c:\Virtual_Environments\theeng\lib\site-packages\plotly\graph_objs\layout\_yaxis.py:2368(title)
        1    0.000    0.000    0.000    0.000 c:\Virtual_Environments\theeng\lib\site-packages\plotly\validators\layout\_template.py:4(TemplateValidator)
        1    0.000    0.000    0.000    0.000 c:\Virtual_Environments\theeng\lib\site-packages\plotly\validators\layout\yaxis\_anchor.py:4(AnchorValidator)
        1    0.000    0.000    0.000    0.000 c:\Virtual_Environments\theeng\lib\site-packages\plotly\validators\layout\_annotations.py:4(AnnotationsValidator)
        1    0.000    0.000    0.000    0.000 c:\Virtual_Environments\theeng\lib\site-packages\plotly\validators\layout\xaxis\_domain.py:4(DomainValidator)
        1    0.000    0.000    0.000    0.000 c:\Virtual_Environments\theeng\lib\site-packages\plotly\graph_objs\layout\_xaxis.py:2445(title)
        1    0.000    0.000    0.000    0.000 c:\Virtual_Environments\theeng\lib\site-packages\pymoo\util\ref_dirs\reduction.py:39(ReductionBasedReferenceDirectionFactory)
        1    0.000    0.000    0.000    0.000 c:\Virtual_Environments\theeng\lib\site-packages\plotly\validators\scatter\marker\_symbol.py:4(SymbolValidator)
        1    0.000    0.000    0.000    0.000 c:\Virtual_Environments\theeng\lib\site-packages\plotly\validators\scatter\_marker.py:4(MarkerValidator)
        1    0.000    0.000    0.000    0.000 c:\Virtual_Environments\theeng\lib\site-packages\plotly\validators\layout\_violinmode.py:4(ViolinmodeValidator)
        1    0.000    0.000    0.000    0.000 c:\Virtual_Environments\theeng\lib\site-packages\plotly\validators\layout\_smith.py:4(SmithValidator)
        1    0.000    0.000    0.000    0.000 c:\Virtual_Environments\theeng\lib\site-packages\plotly\validators\layout\_violingap.py:4(ViolingapValidator)
        1    0.000    0.000    0.000    0.000 c:\Virtual_Environments\theeng\lib\site-packages\plotly\validators\layout\_modebar.py:4(ModebarValidator)
        1    0.000    0.000    0.000    0.000 c:\Virtual_Environments\theeng\lib\site-packages\plotly\validators\layout\_scene.py:4(SceneValidator)
        1    0.000    0.000    0.000    0.000 c:\Virtual_Environments\theeng\lib\site-packages\plotly\validators\layout\_minreducedwidth.py:4(MinreducedwidthValidator)
        1    0.000    0.000    0.000    0.000 c:\Virtual_Environments\theeng\lib\site-packages\plotly\validators\layout\_activeshape.py:4(ActiveshapeValidator)
        1    0.000    0.000    0.000    0.000 c:\Virtual_Environments\theeng\lib\site-packages\plotly\validators\layout\_boxgroupgap.py:4(BoxgroupgapValidator)
        1    0.000    0.000    0.000    0.000 c:\Virtual_Environments\theeng\lib\site-packages\plotly\validators\layout\_sliders.py:4(SlidersValidator)
        1    0.000    0.000    0.000    0.000 c:\Virtual_Environments\theeng\lib\site-packages\plotly\validators\layout\_newshape.py:4(NewshapeValidator)
        1    0.000    0.000    0.000    0.000 c:\Virtual_Environments\theeng\lib\site-packages\plotly\validators\layout\_hiddenlabelssrc.py:4(HiddenlabelssrcValidator)
        1    0.000    0.000    0.000    0.000 c:\Virtual_Environments\theeng\lib\site-packages\plotly\validators\layout\_selections.py:4(SelectionsValidator)
        1    0.000    0.000    0.000    0.000 c:\Virtual_Environments\theeng\lib\site-packages\plotly\validators\layout\_showlegend.py:4(ShowlegendValidator)
        1    0.000    0.000    0.000    0.000 c:\Virtual_Environments\theeng\lib\site-packages\plotly\validators\layout\_waterfallmode.py:4(WaterfallmodeValidator)
        1    0.000    0.000    0.000    0.000 c:\Virtual_Environments\theeng\lib\site-packages\plotly\validators\layout\_autotypenumbers.py:4(AutotypenumbersValidator)
        1    0.000    0.000    0.000    0.000 c:\Virtual_Environments\theeng\lib\site-packages\plotly\validators\layout\_spikedistance.py:4(SpikedistanceValidator)
        1    0.000    0.000    0.000    0.000 c:\Virtual_Environments\theeng\lib\site-packages\plotly\validators\layout\_violingroupgap.py:4(ViolingroupgapValidator)
        1    0.000    0.000    0.000    0.000 c:\Virtual_Environments\theeng\lib\site-packages\plotly\validators\layout\_dragmode.py:4(DragmodeValidator)
        1    0.000    0.000    0.000    0.000 c:\Virtual_Environments\theeng\lib\site-packages\plotly\validators\layout\_font.py:4(FontValidator)
        1    0.000    0.000    0.000    0.000 c:\Virtual_Environments\theeng\lib\site-packages\plotly\validators\layout\_computed.py:4(ComputedValidator)
        1    0.000    0.000    0.000    0.000 c:\Virtual_Environments\theeng\lib\site-packages\plotly\validators\layout\_bargroupgap.py:4(BargroupgapValidator)
        1    0.000    0.000    0.000    0.000 c:\Virtual_Environments\theeng\lib\site-packages\plotly\validators\layout\_images.py:4(ImagesValidator)
        1    0.000    0.000    0.000    0.000 c:\Virtual_Environments\theeng\lib\site-packages\plotly\validators\layout\_separators.py:4(SeparatorsValidator)
        1    0.000    0.000    0.000    0.000 c:\Virtual_Environments\theeng\lib\site-packages\plotly\validators\layout\legend\_title.py:4(TitleValidator)
        1    0.000    0.000    0.000    0.000 c:\Virtual_Environments\theeng\lib\site-packages\plotly\validators\layout\_paper_bgcolor.py:4(Paper_BgcolorValidator)
        1    0.000    0.000    0.000    0.000 c:\Virtual_Environments\theeng\lib\site-packages\plotly\validators\layout\_uirevision.py:4(UirevisionValidator)
        1    0.000    0.000    0.000    0.000 c:\Virtual_Environments\theeng\lib\site-packages\plotly\validators\layout\_extendsunburstcolors.py:4(ExtendsunburstcolorsValidator)
        1    0.000    0.000    0.000    0.000 c:\Virtual_Environments\theeng\lib\site-packages\plotly\validators\layout\_funnelgroupgap.py:4(FunnelgroupgapValidator)
        1    0.000    0.000    0.000    0.000 c:\Virtual_Environments\theeng\lib\site-packages\plotly\validators\layout\_scattermode.py:4(ScattermodeValidator)
        1    0.000    0.000    0.000    0.000 c:\Virtual_Environments\theeng\lib\site-packages\plotly\validators\layout\_clickmode.py:4(ClickmodeValidator)
        1    0.000    0.000    0.000    0.000 c:\Virtual_Environments\theeng\lib\site-packages\plotly\validators\layout\_piecolorway.py:4(PiecolorwayValidator)
        1    0.000    0.000    0.000    0.000 c:\Virtual_Environments\theeng\lib\site-packages\plotly\validators\layout\_updatemenus.py:4(UpdatemenusValidator)
        1    0.000    0.000    0.000    0.000 c:\Virtual_Environments\theeng\lib\site-packages\plotly\validators\layout\_polar.py:4(PolarValidator)
        1    0.000    0.000    0.000    0.000 c:\Virtual_Environments\theeng\lib\site-packages\plotly\validators\barpolar\_marker.py:4(MarkerValidator)
        1    0.000    0.000    0.000    0.000 c:\Virtual_Environments\theeng\lib\site-packages\plotly\validators\barpolar\marker\_line.py:4(LineValidator)
        1    0.000    0.000    0.000    0.000 c:\Virtual_Environments\theeng\lib\site-packages\plotly\validators\barpolar\marker\line\_color.py:4(ColorValidator)
        1    0.000    0.000    0.000    0.000 c:\Virtual_Environments\theeng\lib\site-packages\plotly\validators\barpolar\marker\line\_width.py:4(WidthValidator)
        1    0.000    0.000    0.000    0.000 c:\Virtual_Environments\theeng\lib\site-packages\plotly\validators\barpolar\marker\_pattern.py:4(PatternValidator)
        1    0.000    0.000    0.000    0.000 c:\Virtual_Environments\theeng\lib\site-packages\plotly\validators\layout\template\data\_bar.py:4(BarValidator)
        1    0.000    0.000    0.000    0.000 c:\Virtual_Environments\theeng\lib\site-packages\plotly\validators\bar\_marker.py:4(MarkerValidator)
        1    0.000    0.000    0.000    0.000 c:\Virtual_Environments\theeng\lib\site-packages\plotly\validators\bar\marker\_line.py:4(LineValidator)
        1    0.000    0.000    0.000    0.000 c:\Virtual_Environments\theeng\lib\site-packages\plotly\validators\bar\marker\_pattern.py:4(PatternValidator)
        1    0.000    0.000    0.000    0.000 c:\Virtual_Environments\theeng\lib\site-packages\plotly\validators\bar\marker\pattern\_solidity.py:4(SolidityValidator)
        1    0.000    0.000    0.000    0.000 c:\Virtual_Environments\theeng\lib\site-packages\plotly\validators\layout\template\data\_scatter.py:4(ScatterValidator)
        1    0.000    0.000    0.000    0.000 c:\Virtual_Environments\theeng\lib\site-packages\plotly\validators\carpet\_aaxis.py:4(AaxisValidator)
        1    0.000    0.000    0.000    0.000 c:\Virtual_Environments\theeng\lib\site-packages\plotly\validators\layout\xaxis\title\_text.py:4(TextValidator)
        1    0.000    0.000    0.000    0.000 c:\Virtual_Environments\theeng\lib\site-packages\plotly\validators\carpet\aaxis\_minorgridcolor.py:4(MinorgridcolorValidator)
        1    0.000    0.000    0.000    0.000 c:\Virtual_Environments\theeng\lib\site-packages\plotly\validators\carpet\baxis\_endlinecolor.py:4(EndlinecolorValidator)
        1    0.000    0.000    0.000    0.000 c:\Virtual_Environments\theeng\lib\site-packages\plotly\validators\layout\template\data\_choropleth.py:4(ChoroplethValidator)
        1    0.000    0.000    0.000    0.000 c:\Virtual_Environments\theeng\lib\site-packages\plotly\validators\scatter\_orientation.py:4(OrientationValidator)
        1    0.000    0.000    0.000    0.000 c:\Virtual_Environments\theeng\lib\site-packages\plotly\validators\layout\_xaxis.py:4(XaxisValidator)
        1    0.000    0.000    0.000    0.000 c:\Virtual_Environments\theeng\lib\site-packages\plotly\validators\scatter\_x.py:4(XValidator)
        1    0.000    0.000    0.000    0.000 c:\Virtual_Environments\theeng\lib\site-packages\plotly\validators\scatter\_y.py:4(YValidator)
        1    0.000    0.000    0.000    0.000 c:\Virtual_Environments\theeng\lib\site-packages\plotly\validators\scatter\_hovertemplate.py:4(HovertemplateValidator)
        1    0.000    0.000    0.000    0.000 c:\Virtual_Environments\theeng\lib\site-packages\plotly\validators\scatter\_legendgroup.py:4(LegendgroupValidator)
        1    0.000    0.000    0.000    0.000 c:\Virtual_Environments\theeng\lib\site-packages\plotly\validators\scatter\_showlegend.py:4(ShowlegendValidator)
        1    0.000    0.000    0.000    0.000 c:\Virtual_Environments\theeng\lib\site-packages\plotly\validators\choropleth\colorbar\_ticks.py:4(TicksValidator)
        1    0.000    0.000    0.000    0.000 c:\Virtual_Environments\theeng\lib\site-packages\plotly\validators\contourcarpet\_colorbar.py:4(ColorbarValidator)
        1    0.000    0.000    0.000    0.000 c:\Virtual_Environments\theeng\lib\site-packages\plotly\validators\contourcarpet\colorbar\_ticks.py:4(TicksValidator)
        1    0.000    0.000    0.000    0.000 c:\Virtual_Environments\theeng\lib\site-packages\plotly\validators\contour\_colorbar.py:4(ColorbarValidator)
        1    0.000    0.000    0.000    0.000 c:\Virtual_Environments\theeng\lib\site-packages\plotly\validators\contour\colorbar\_outlinewidth.py:4(OutlinewidthValidator)
        1    0.000    0.000    0.000    0.000 c:\Virtual_Environments\theeng\lib\site-packages\plotly\validators\scatter\_name.py:4(NameValidator)
        1    0.000    0.000    0.000    0.000 c:\Virtual_Environments\theeng\lib\site-packages\plotly\validators\heatmapgl\_colorbar.py:4(ColorbarValidator)
        1    0.000    0.000    0.000    0.000 c:\Virtual_Environments\theeng\lib\site-packages\plotly\validators\heatmapgl\colorbar\_ticks.py:4(TicksValidator)
        1    0.000    0.000    0.000    0.000 c:\Virtual_Environments\theeng\lib\site-packages\plotly\validators\heatmapgl\_colorscale.py:4(ColorscaleValidator)
        1    0.000    0.000    0.000    0.000 c:\Virtual_Environments\theeng\lib\site-packages\plotly\validators\heatmap\colorbar\_ticks.py:4(TicksValidator)
        1    0.000    0.000    0.000    0.000 c:\Virtual_Environments\theeng\lib\site-packages\plotly\validators\histogram2dcontour\_colorbar.py:4(ColorbarValidator)
        1    0.000    0.000    0.000    0.000 c:\Virtual_Environments\theeng\lib\site-packages\plotly\validators\histogram2dcontour\colorbar\_ticks.py:4(TicksValidator)
        1    0.000    0.000    0.000    0.000 C:\Python38\lib\webbrowser.py:294(Netscape)
        1    0.000    0.000    0.000    0.000 c:\Virtual_Environments\theeng\lib\site-packages\plotly\validators\layout\template\data\_histogram2d.py:4(Histogram2DValidator)
        1    0.000    0.000    0.000    0.000 C:\Python38\lib\webbrowser.py:284(Mozilla)
        1    0.000    0.000    0.000    0.000 c:\Virtual_Environments\theeng\lib\site-packages\plotly\validators\histogram2d\colorbar\_ticks.py:4(TicksValidator)
        1    0.000    0.000    0.000    0.000 c:\Virtual_Environments\theeng\lib\site-packages\plotly\validators\layout\template\data\_histogram.py:4(HistogramValidator)
        1    0.000    0.000    0.000    0.000 c:\Virtual_Environments\theeng\lib\site-packages\plotly\validators\parcoords\_domain.py:4(DomainValidator)
        1    0.000    0.000    0.000    0.000 c:\Virtual_Environments\theeng\lib\site-packages\plotly\validators\histogram\_marker.py:4(MarkerValidator)
        1    0.000    0.000    0.000    0.000 c:\Virtual_Environments\theeng\lib\site-packages\plotly\validators\mesh3d\_colorbar.py:4(ColorbarValidator)
        1    0.000    0.000    0.000    0.000 c:\Virtual_Environments\theeng\lib\site-packages\plotly\validators\mesh3d\colorbar\_outlinewidth.py:4(OutlinewidthValidator)
        1    0.000    0.000    0.000    0.000 c:\Virtual_Environments\theeng\lib\site-packages\plotly\validators\layout\_metasrc.py:4(MetasrcValidator)
        1    0.000    0.000    0.000    0.000 c:\Virtual_Environments\theeng\lib\site-packages\plotly\validators\layout\_meta.py:4(MetaValidator)
        1    0.000    0.000    0.000    0.000 c:\Virtual_Environments\theeng\lib\site-packages\plotly\validators\layout\_selectdirection.py:4(SelectdirectionValidator)
        1    0.000    0.000    0.000    0.000 c:\Virtual_Environments\theeng\lib\site-packages\plotly\validators\layout\_extendfunnelareacolors.py:4(ExtendfunnelareacolorsValidator)
        1    0.000    0.000    0.000    0.000 c:\Virtual_Environments\theeng\lib\site-packages\plotly\validators\layout\_waterfallgap.py:4(WaterfallgapValidator)
        1    0.000    0.000    0.000    0.000 c:\Virtual_Environments\theeng\lib\site-packages\plotly\validators\layout\_calendar.py:4(CalendarValidator)
        1    0.000    0.000    0.000    0.000 c:\Virtual_Environments\theeng\lib\site-packages\plotly\validators\layout\_hiddenlabels.py:4(HiddenlabelsValidator)
        1    0.000    0.000    0.000    0.000 c:\Virtual_Environments\theeng\lib\site-packages\plotly\validators\layout\_extendpiecolors.py:4(ExtendpiecolorsValidator)
        1    0.000    0.000    0.000    0.000 c:\Virtual_Environments\theeng\lib\site-packages\plotly\validators\layout\_transition.py:4(TransitionValidator)
        1    0.000    0.000    0.000    0.000 c:\Virtual_Environments\theeng\lib\site-packages\plotly\validators\mesh3d\colorbar\_ticks.py:4(TicksValidator)
        1    0.000    0.000    0.000    0.000 c:\Virtual_Environments\theeng\lib\site-packages\plotly\validators\parcoords\_line.py:4(LineValidator)
        1    0.000    0.000    0.000    0.000 c:\Virtual_Environments\theeng\lib\site-packages\plotly\validators\parcoords\line\_colorbar.py:4(ColorbarValidator)
        1    0.000    0.000    0.000    0.000 c:\Virtual_Environments\theeng\lib\site-packages\plotly\validators\scatter3d\_line.py:4(LineValidator)
        1    0.000    0.000    0.000    0.000 c:\Virtual_Environments\theeng\lib\site-packages\plotly\validators\scatter3d\marker\colorbar\_ticks.py:4(TicksValidator)
        1    0.000    0.000    0.000    0.000 c:\Virtual_Environments\theeng\lib\site-packages\plotly\validators\scattercarpet\marker\colorbar\_ticks.py:4(TicksValidator)
        1    0.000    0.000    0.000    0.000 c:\Virtual_Environments\theeng\lib\site-packages\plotly\validators\layout\template\data\_scattergeo.py:4(ScattergeoValidator)
        1    0.000    0.000    0.000    0.000 c:\Virtual_Environments\theeng\lib\site-packages\plotly\validators\scattergeo\_marker.py:4(MarkerValidator)
        1    0.000    0.000    0.000    0.000 c:\Virtual_Environments\theeng\lib\site-packages\plotly\validators\scattergeo\marker\_colorbar.py:4(ColorbarValidator)
        1    0.000    0.000    0.000    0.000 c:\Virtual_Environments\theeng\lib\site-packages\plotly\validators\scattergeo\marker\colorbar\_ticks.py:4(TicksValidator)
        1    0.000    0.000    0.000    0.000 c:\Virtual_Environments\theeng\lib\site-packages\plotly\validators\scattergl\marker\colorbar\_ticks.py:4(TicksValidator)
        1    0.000    0.000    0.000    0.000 c:\Virtual_Environments\theeng\lib\site-packages\plotly\validators\scattermapbox\_marker.py:4(MarkerValidator)
        1    0.000    0.000    0.000    0.000 c:\Virtual_Environments\theeng\lib\site-packages\plotly\validators\scatterpolargl\_marker.py:4(MarkerValidator)
        1    0.000    0.000    0.000    0.000 c:\Virtual_Environments\theeng\lib\site-packages\plotly\validators\scatterpolargl\marker\_colorbar.py:4(ColorbarValidator)
        1    0.000    0.000    0.000    0.000 c:\Virtual_Environments\theeng\lib\site-packages\plotly\validators\layout\template\data\_scatterpolar.py:4(ScatterpolarValidator)
        1    0.000    0.000    0.000    0.000 c:\Virtual_Environments\theeng\lib\site-packages\plotly\validators\scatterpolar\_marker.py:4(MarkerValidator)
        1    0.000    0.000    0.000    0.000 c:\Virtual_Environments\theeng\lib\site-packages\plotly\validators\scatterpolar\marker\colorbar\_ticks.py:4(TicksValidator)
        1    0.000    0.000    0.000    0.000 c:\Virtual_Environments\theeng\lib\site-packages\plotly\validators\scatter\_fillpattern.py:4(FillpatternValidator)
        1    0.000    0.000    0.000    0.000 c:\Virtual_Environments\theeng\lib\site-packages\plotly\validators\scatter\fillpattern\_size.py:4(SizeValidator)
        1    0.000    0.000    0.000    0.000 c:\Virtual_Environments\theeng\lib\site-packages\plotly\validators\scatter\fillpattern\_solidity.py:4(SolidityValidator)
        1    0.000    0.000    0.000    0.000 c:\Virtual_Environments\theeng\lib\site-packages\plotly\validators\surface\_colorbar.py:4(ColorbarValidator)
        1    0.000    0.000    0.000    0.000 c:\Virtual_Environments\theeng\lib\site-packages\plotly\validators\surface\_colorscale.py:4(ColorscaleValidator)
        1    0.000    0.000    0.000    0.000 c:\Virtual_Environments\theeng\lib\site-packages\plotly\validators\table\cells\line\_color.py:4(ColorValidator)
        1    0.000    0.000    0.000    0.000 c:\Virtual_Environments\theeng\lib\site-packages\plotly\validators\table\header\_fill.py:4(FillValidator)
        1    0.000    0.000    0.000    0.000 c:\Virtual_Environments\theeng\lib\site-packages\plotly\validators\table\header\_line.py:4(LineValidator)
        1    0.000    0.000    0.000    0.000 c:\Virtual_Environments\theeng\lib\site-packages\plotly\validators\table\header\line\_color.py:4(ColorValidator)
        1    0.000    0.000    0.000    0.000 c:\Virtual_Environments\theeng\lib\site-packages\plotly\validators\heatmap\_coloraxis.py:4(ColoraxisValidator)
        1    0.000    0.000    0.000    0.000 c:\Virtual_Environments\theeng\lib\site-packages\plotly\validators\layout\colorscale\_diverging.py:4(DivergingValidator)
        1    0.000    0.000    0.000    0.000 c:\Virtual_Environments\theeng\lib\site-packages\plotly\validators\layout\geo\_bgcolor.py:4(BgcolorValidator)
        1    0.000    0.000    0.000    0.000 c:\Virtual_Environments\theeng\lib\site-packages\plotly\validators\layout\geo\_lakecolor.py:4(LakecolorValidator)
        1    0.000    0.000    0.000    0.000 c:\Virtual_Environments\theeng\lib\site-packages\plotly\validators\layout\geo\_subunitcolor.py:4(SubunitcolorValidator)
        1    0.000    0.000    0.000    0.000 c:\Virtual_Environments\theeng\lib\site-packages\plotly\validators\layout\polar\angularaxis\_gridcolor.py:4(GridcolorValidator)
        1    0.000    0.000    0.000    0.000 c:\Virtual_Environments\theeng\lib\site-packages\plotly\validators\layout\polar\angularaxis\_linecolor.py:4(LinecolorValidator)
        1    0.000    0.000    0.000    0.000 c:\Virtual_Environments\theeng\lib\site-packages\plotly\validators\layout\polar\angularaxis\_ticks.py:4(TicksValidator)
        1    0.000    0.000    0.000    0.000 c:\Virtual_Environments\theeng\lib\site-packages\plotly\validators\layout\polar\_radialaxis.py:4(RadialaxisValidator)
        1    0.000    0.000    0.000    0.000 c:\Virtual_Environments\theeng\lib\site-packages\plotly\validators\layout\scene\_xaxis.py:4(XaxisValidator)
        1    0.000    0.000    0.000    0.000 c:\Virtual_Environments\theeng\lib\site-packages\plotly\validators\layout\scene\xaxis\_backgroundcolor.py:4(BackgroundcolorValidator)
        1    0.000    0.000    0.000    0.000 c:\Virtual_Environments\theeng\lib\site-packages\plotly\validators\layout\scene\xaxis\_gridwidth.py:4(GridwidthValidator)
        1    0.000    0.000    0.000    0.000 c:\Virtual_Environments\theeng\lib\site-packages\plotly\validators\layout\scene\xaxis\_showbackground.py:4(ShowbackgroundValidator)
        1    0.000    0.000    0.000    0.000 c:\Virtual_Environments\theeng\lib\site-packages\plotly\validators\layout\scene\xaxis\_zerolinecolor.py:4(ZerolinecolorValidator)
        1    0.000    0.000    0.000    0.000 c:\Virtual_Environments\theeng\lib\site-packages\plotly\validators\layout\scene\_yaxis.py:4(YaxisValidator)
        1    0.000    0.000    0.000    0.000 c:\Virtual_Environments\theeng\lib\site-packages\plotly\validators\layout\scene\yaxis\_zerolinecolor.py:4(ZerolinecolorValidator)
        1    0.000    0.000    0.000    0.000 c:\Virtual_Environments\theeng\lib\site-packages\plotly\validators\layout\scene\_zaxis.py:4(ZaxisValidator)
        1    0.000    0.000    0.000    0.000 c:\Virtual_Environments\theeng\lib\site-packages\plotly\validators\layout\scene\zaxis\_backgroundcolor.py:4(BackgroundcolorValidator)
        1    0.000    0.000    0.000    0.000 c:\Virtual_Environments\theeng\lib\site-packages\plotly\validators\layout\scene\zaxis\_linecolor.py:4(LinecolorValidator)
        1    0.000    0.000    0.000    0.000 c:\Virtual_Environments\theeng\lib\site-packages\plotly\validators\layout\shape\_line.py:4(LineValidator)
        1    0.000    0.000    0.000    0.000 c:\Virtual_Environments\theeng\lib\site-packages\plotly\validators\layout\ternary\aaxis\_linecolor.py:4(LinecolorValidator)
        1    0.000    0.000    0.000    0.000 c:\Virtual_Environments\theeng\lib\site-packages\plotly\validators\layout\ternary\baxis\_gridcolor.py:4(GridcolorValidator)
        1    0.000    0.000    0.000    0.000 c:\Virtual_Environments\theeng\lib\site-packages\plotly\validators\layout\ternary\baxis\_ticks.py:4(TicksValidator)
        1    0.000    0.000    0.000    0.000 c:\Virtual_Environments\theeng\lib\site-packages\plotly\validators\layout\ternary\_caxis.py:4(CaxisValidator)
        1    0.000    0.000    0.000    0.000 c:\Virtual_Environments\theeng\lib\site-packages\plotly\validators\layout\xaxis\_automargin.py:4(AutomarginValidator)
        1    0.000    0.000    0.000    0.000 c:\Virtual_Environments\theeng\lib\site-packages\plotly\validators\layout\xaxis\_zerolinecolor.py:4(ZerolinecolorValidator)
        1    0.000    0.000    0.000    0.000 c:\Virtual_Environments\theeng\lib\site-packages\plotly\validators\layout\yaxis\_automargin.py:4(AutomarginValidator)
        1    0.000    0.000    0.000    0.000 c:\Virtual_Environments\theeng\lib\site-packages\plotly\validators\layout\yaxis\_gridcolor.py:4(GridcolorValidator)
        1    0.000    0.000    0.000    0.000 c:\Virtual_Environments\theeng\lib\site-packages\plotly\validators\layout\yaxis\_linecolor.py:4(LinecolorValidator)
        1    0.000    0.000    0.000    0.000 c:\Virtual_Environments\theeng\lib\site-packages\plotly\validators\layout\yaxis\_title.py:4(TitleValidator)
        1    0.000    0.000    0.000    0.000 c:\Virtual_Environments\theeng\lib\site-packages\plotly\validators\layout\yaxis\_zerolinecolor.py:4(ZerolinecolorValidator)
        1    0.000    0.000    0.000    0.000 c:\Virtual_Environments\theeng\lib\site-packages\plotly\validators\parcoords\dimension\_label.py:4(LabelValidator)
        1    0.000    0.000    0.000    0.000 c:\Virtual_Environments\theeng\lib\site-packages\plotly\validators\parcoords\dimension\_values.py:4(ValuesValidator)
        1    0.000    0.000    0.000    0.000 c:\Virtual_Environments\theeng\lib\site-packages\plotly\validators\heatmap\_y.py:4(YValidator)
        1    0.000    0.000    0.000    0.000 c:\Virtual_Environments\theeng\lib\site-packages\plotly\validators\heatmap\_z.py:4(ZValidator)
        1    0.000    0.000    0.000    0.000 c:\Virtual_Environments\theeng\lib\site-packages\plotly\validators\parcoords\domain\_y.py:4(YValidator)
        1    0.000    0.000    0.000    0.000 c:\Virtual_Environments\theeng\lib\site-packages\plotly\validators\heatmap\_hovertemplate.py:4(HovertemplateValidator)
        1    0.000    0.000    0.000    0.000 c:\Virtual_Environments\theeng\lib\site-packages\plotly\validators\layout\xaxis\_scaleanchor.py:4(ScaleanchorValidator)
        1    0.000    0.000    0.000    0.000 c:\Virtual_Environments\theeng\lib\site-packages\plotly\validators\layout\xaxis\_constrain.py:4(ConstrainValidator)
        1    0.000    0.000    0.000    0.000 c:\Virtual_Environments\theeng\lib\site-packages\plotly\validators\layout\coloraxis\_colorscale.py:4(ColorscaleValidator)
        1    0.000    0.000    0.000    0.000 c:\Virtual_Environments\theeng\lib\site-packages\plotly\validators\layout\coloraxis\_cmid.py:4(CmidValidator)
        3    0.000    0.000    0.000    0.000 c:\Virtual_Environments\theeng\lib\site-packages\pandas\core\indexes\range.py:896(<genexpr>)
        1    0.000    0.000    0.000    0.000 c:\Virtual_Environments\theeng\lib\site-packages\pandas\core\indexes\range.py:907(<listcomp>)
        1    0.000    0.000    0.000    0.000 c:\Virtual_Environments\theeng\lib\site-packages\pandas\io\formats\format.py:776(_is_screen_short)
        1    0.000    0.000    0.000    0.000 c:\Virtual_Environments\theeng\lib\site-packages\pandas\core\groupby\grouper.py:615(codes)
        1    0.000    0.000    0.000    0.000 c:\Virtual_Environments\theeng\lib\site-packages\pymoo\util\normalization.py:16(__init__)
        1    0.000    0.000    0.000    0.000 c:\Virtual_Environments\theeng\lib\site-packages\theeng\core\problem.py:318(<listcomp>)
        1    0.000    0.000    0.000    0.000 c:\Virtual_Environments\theeng\lib\site-packages\scipy\stats\_qmc.py:2212(_select_optimizer)
        1    0.000    0.000    0.000    0.000 c:\Virtual_Environments\theeng\lib\site-packages\joblib\_parallel_backends.py:634(__init__)
        1    0.000    0.000    0.000    0.000 c:\Virtual_Environments\theeng\lib\site-packages\sklearn\metrics\_scorer.py:405(get_scorer)
        4    0.000    0.000    0.000    0.000 c:\Virtual_Environments\theeng\lib\site-packages\plotly\express\_core.py:215(<lambda>)
        3    0.000    0.000    0.000    0.000 c:\Virtual_Environments\theeng\lib\site-packages\plotly\basedatatypes.py:524(<listcomp>)
        2    0.000    0.000    0.000    0.000 c:\Virtual_Environments\theeng\lib\site-packages\plotly\basedatatypes.py:1430(<lambda>)
        3    0.000    0.000    0.000    0.000 c:\Virtual_Environments\theeng\lib\site-packages\plotly\basedatatypes.py:2242(<listcomp>)
        1    0.000    0.000    0.000    0.000 C:\Engineering Programs\FreeCAD 0.20\Mod\Fem\femsolver\settings.py:53(DirSetting)
        1    0.000    0.000    0.000    0.000 C:\Engineering Programs\FreeCAD 0.20\Mod\Fem\femsolver\settings.py:155(_SolverDlg)
        1    0.000    0.000    0.000    0.000 c:\Virtual_Environments\theeng\lib\site-packages\plotly\validators\layout\_colorscale.py:4(ColorscaleValidator)
        1    0.000    0.000    0.000    0.000 c:\Virtual_Environments\theeng\lib\site-packages\plotly\validators\layout\colorscale\_sequential.py:4(SequentialValidator)
        1    0.000    0.000    0.000    0.000 c:\Virtual_Environments\theeng\lib\site-packages\plotly\animation.py:4(EasingValidator)
        1    0.000    0.000    0.000    0.000 c:\Virtual_Environments\theeng\lib\site-packages\plotly\validators\layout\yaxis\_domain.py:4(DomainValidator)
        1    0.000    0.000    0.000    0.000 c:\Virtual_Environments\theeng\lib\site-packages\plotly\validators\_layout.py:4(LayoutValidator)
        1    0.000    0.000    0.000    0.000 c:\Virtual_Environments\theeng\lib\site-packages\plotly\validators\_frames.py:4(FramesValidator)
        1    0.000    0.000    0.000    0.000 c:\Virtual_Environments\theeng\lib\site-packages\plotly\validators\layout\xaxis\_anchor.py:4(AnchorValidator)
        1    0.000    0.000    0.000    0.000 c:\Virtual_Environments\theeng\lib\site-packages\plotly\validators\layout\_yaxis.py:4(YaxisValidator)
        1    0.000    0.000    0.000    0.000 c:\Virtual_Environments\theeng\lib\site-packages\plotly\validators\layout\_title.py:4(TitleValidator)
        1    0.000    0.000    0.000    0.000 c:\Virtual_Environments\theeng\lib\site-packages\plotly\validators\layout\title\_font.py:4(FontValidator)
        1    0.000    0.000    0.000    0.000 c:\Virtual_Environments\theeng\lib\site-packages\plotly\validators\layout\_autosize.py:4(AutosizeValidator)
        1    0.000    0.000    0.000    0.000 c:\Virtual_Environments\theeng\lib\site-packages\plotly\validators\layout\_mapbox.py:4(MapboxValidator)
        1    0.000    0.000    0.000    0.000 c:\Virtual_Environments\theeng\lib\site-packages\plotly\validators\layout\_minreducedheight.py:4(MinreducedheightValidator)
        1    0.000    0.000    0.000    0.000 c:\Virtual_Environments\theeng\lib\site-packages\plotly\validators\layout\_height.py:4(HeightValidator)
        1    0.000    0.000    0.000    0.000 c:\Virtual_Environments\theeng\lib\site-packages\plotly\validators\layout\_updatemenudefaults.py:4(UpdatemenudefaultsValidator)
        1    0.000    0.000    0.000    0.000 c:\Virtual_Environments\theeng\lib\site-packages\plotly\validators\layout\_annotationdefaults.py:4(AnnotationdefaultsValidator)
        1    0.000    0.000    0.000    0.000 c:\Virtual_Environments\theeng\lib\site-packages\plotly\validators\layout\_bargap.py:4(BargapValidator)
        1    0.000    0.000    0.000    0.000 c:\Virtual_Environments\theeng\lib\site-packages\plotly\validators\layout\_scattergap.py:4(ScattergapValidator)
        1    0.000    0.000    0.000    0.000 c:\Virtual_Environments\theeng\lib\site-packages\plotly\validators\layout\_treemapcolorway.py:4(TreemapcolorwayValidator)
        1    0.000    0.000    0.000    0.000 c:\Virtual_Environments\theeng\lib\site-packages\plotly\validators\layout\_boxgap.py:4(BoxgapValidator)
        1    0.000    0.000    0.000    0.000 c:\Virtual_Environments\theeng\lib\site-packages\plotly\validators\layout\_geo.py:4(GeoValidator)
        1    0.000    0.000    0.000    0.000 c:\Virtual_Environments\theeng\lib\site-packages\plotly\validators\layout\_activeselection.py:4(ActiveselectionValidator)
        1    0.000    0.000    0.000    0.000 c:\Virtual_Environments\theeng\lib\site-packages\plotly\validators\layout\_funnelareacolorway.py:4(FunnelareacolorwayValidator)
        1    0.000    0.000    0.000    0.000 c:\Virtual_Environments\theeng\lib\site-packages\plotly\validators\layout\_imagedefaults.py:4(ImagedefaultsValidator)
        1    0.000    0.000    0.000    0.000 c:\Virtual_Environments\theeng\lib\site-packages\plotly\validators\layout\_boxmode.py:4(BoxmodeValidator)
        1    0.000    0.000    0.000    0.000 c:\Virtual_Environments\theeng\lib\site-packages\plotly\validators\layout\_extendiciclecolors.py:4(ExtendiciclecolorsValidator)
        1    0.000    0.000    0.000    0.000 c:\Virtual_Environments\theeng\lib\site-packages\plotly\validators\layout\_selectionrevision.py:4(SelectionrevisionValidator)
        1    0.000    0.000    0.000    0.000 c:\Virtual_Environments\theeng\lib\site-packages\plotly\validators\layout\_shapes.py:4(ShapesValidator)
        1    0.000    0.000    0.000    0.000 c:\Virtual_Environments\theeng\lib\site-packages\plotly\validators\layout\_hovermode.py:4(HovermodeValidator)
        1    0.000    0.000    0.000    0.000 c:\Virtual_Environments\theeng\lib\site-packages\plotly\validators\layout\legend\_tracegroupgap.py:4(TracegroupgapValidator)
        1    0.000    0.000    0.000    0.000 c:\Virtual_Environments\theeng\lib\site-packages\plotly\validators\layout\_extendtreemapcolors.py:4(ExtendtreemapcolorsValidator)
        1    0.000    0.000    0.000    0.000 c:\Virtual_Environments\theeng\lib\site-packages\plotly\validators\layout\_uniformtext.py:4(UniformtextValidator)
        1    0.000    0.000    0.000    0.000 c:\Virtual_Environments\theeng\lib\site-packages\plotly\validators\layout\_selectiondefaults.py:4(SelectiondefaultsValidator)
        1    0.000    0.000    0.000    0.000 c:\Virtual_Environments\theeng\lib\site-packages\plotly\validators\layout\_hoverlabel.py:4(HoverlabelValidator)
        1    0.000    0.000    0.000    0.000 c:\Virtual_Environments\theeng\lib\site-packages\plotly\validators\layout\_newselection.py:4(NewselectionValidator)
        1    0.000    0.000    0.000    0.000 c:\Virtual_Environments\theeng\lib\site-packages\plotly\validators\layout\_datarevision.py:4(DatarevisionValidator)
        1    0.000    0.000    0.000    0.000 c:\Virtual_Environments\theeng\lib\site-packages\plotly\validators\heatmap\_texttemplate.py:4(TexttemplateValidator)
        1    0.000    0.000    0.000    0.000 c:\Virtual_Environments\theeng\lib\site-packages\plotly\validators\layout\template\data\_barpolar.py:4(BarpolarValidator)
        1    0.000    0.000    0.000    0.000 c:\Virtual_Environments\theeng\lib\site-packages\plotly\validators\barpolar\marker\pattern\_solidity.py:4(SolidityValidator)
        1    0.000    0.000    0.000    0.000 c:\Virtual_Environments\theeng\lib\site-packages\plotly\validators\bar\_error_x.py:4(Error_XValidator)
        1    0.000    0.000    0.000    0.000 c:\Virtual_Environments\theeng\lib\site-packages\plotly\validators\bar\error_x\_color.py:4(ColorValidator)
        1    0.000    0.000    0.000    0.000 c:\Virtual_Environments\theeng\lib\site-packages\plotly\validators\bar\_error_y.py:4(Error_YValidator)
        1    0.000    0.000    0.000    0.000 c:\Virtual_Environments\theeng\lib\site-packages\plotly\validators\bar\error_y\_color.py:4(ColorValidator)
        1    0.000    0.000    0.000    0.000 c:\Virtual_Environments\theeng\lib\site-packages\plotly\validators\bar\marker\line\_color.py:4(ColorValidator)
        1    0.000    0.000    0.000    0.000 c:\Virtual_Environments\theeng\lib\site-packages\plotly\validators\bar\marker\pattern\_fillmode.py:4(FillmodeValidator)
        1    0.000    0.000    0.000    0.000 c:\Virtual_Environments\theeng\lib\site-packages\plotly\validators\layout\template\data\_carpet.py:4(CarpetValidator)
        1    0.000    0.000    0.000    0.000 c:\Virtual_Environments\theeng\lib\site-packages\plotly\validators\carpet\aaxis\_endlinecolor.py:4(EndlinecolorValidator)
        1    0.000    0.000    0.000    0.000 c:\Virtual_Environments\theeng\lib\site-packages\plotly\validators\carpet\aaxis\_gridcolor.py:4(GridcolorValidator)
        1    0.000    0.000    0.000    0.000 c:\Virtual_Environments\theeng\lib\site-packages\plotly\validators\carpet\aaxis\_startlinecolor.py:4(StartlinecolorValidator)
        1    0.000    0.000    0.000    0.000 c:\Virtual_Environments\theeng\lib\site-packages\plotly\validators\carpet\baxis\_gridcolor.py:4(GridcolorValidator)
        1    0.000    0.000    0.000    0.000 c:\Virtual_Environments\theeng\lib\site-packages\plotly\validators\carpet\baxis\_linecolor.py:4(LinecolorValidator)
        1    0.000    0.000    0.000    0.000 c:\Virtual_Environments\theeng\lib\site-packages\plotly\validators\carpet\baxis\_startlinecolor.py:4(StartlinecolorValidator)
        1    0.000    0.000    0.000    0.000 c:\Virtual_Environments\theeng\lib\site-packages\plotly\validators\choropleth\_colorbar.py:4(ColorbarValidator)
        1    0.000    0.000    0.000    0.000 c:\Virtual_Environments\theeng\lib\site-packages\plotly\validators\choropleth\colorbar\_outlinewidth.py:4(OutlinewidthValidator)
        1    0.000    0.000    0.000    0.000 c:\Virtual_Environments\theeng\lib\site-packages\plotly\validators\layout\margin\_t.py:4(TValidator)
        1    0.000    0.000    0.000    0.000 c:\Virtual_Environments\theeng\lib\site-packages\plotly\validators\layout\_margin.py:4(MarginValidator)
        1    0.000    0.000    0.000    0.000 c:\Virtual_Environments\theeng\lib\site-packages\plotly\validators\scatter\marker\_color.py:4(ColorValidator)
        1    0.000    0.000    0.000    0.000 c:\Virtual_Environments\theeng\lib\site-packages\plotly\validators\_data.py:4(DataValidator)
        1    0.000    0.000    0.000    0.000 c:\Virtual_Environments\theeng\lib\site-packages\plotly\validators\layout\template\_layout.py:4(LayoutValidator)
        1    0.000    0.000    0.000    0.000 c:\Virtual_Environments\theeng\lib\site-packages\plotly\validators\layout\template\data\_contourcarpet.py:4(ContourcarpetValidator)
        1    0.000    0.000    0.000    0.000 c:\Virtual_Environments\theeng\lib\site-packages\plotly\validators\contourcarpet\colorbar\_outlinewidth.py:4(OutlinewidthValidator)
        1    0.000    0.000    0.000    0.000 c:\Virtual_Environments\theeng\lib\site-packages\plotly\validators\layout\template\data\_contour.py:4(ContourValidator)
        1    0.000    0.000    0.000    0.000 c:\Virtual_Environments\theeng\lib\site-packages\plotly\validators\contour\colorbar\_ticks.py:4(TicksValidator)
        1    0.000    0.000    0.000    0.000 c:\Virtual_Environments\theeng\lib\site-packages\plotly\validators\contour\_colorscale.py:4(ColorscaleValidator)
        1    0.000    0.000    0.000    0.000 c:\Virtual_Environments\theeng\lib\site-packages\plotly\validators\layout\template\data\_heatmapgl.py:4(HeatmapglValidator)
        1    0.000    0.000    0.000    0.000 c:\Virtual_Environments\theeng\lib\site-packages\plotly\validators\scatter\_xaxis.py:4(XaxisValidator)
        1    0.000    0.000    0.000    0.000 c:\Virtual_Environments\theeng\lib\site-packages\plotly\validators\scatter\_yaxis.py:4(YaxisValidator)
        1    0.000    0.000    0.000    0.000 c:\Virtual_Environments\theeng\lib\site-packages\plotly\graph_objs\_deprecations.py:8(Data)
        1    0.000    0.000    0.000    0.000 c:\Virtual_Environments\theeng\lib\site-packages\plotly\validators\layout\template\data\_heatmap.py:4(HeatmapValidator)
        1    0.000    0.000    0.000    0.000 c:\Virtual_Environments\theeng\lib\site-packages\plotly\validators\heatmap\_colorbar.py:4(ColorbarValidator)
        1    0.000    0.000    0.000    0.000 c:\Virtual_Environments\theeng\lib\site-packages\plotly\validators\heatmap\colorbar\_outlinewidth.py:4(OutlinewidthValidator)
        1    0.000    0.000    0.000    0.000 c:\Virtual_Environments\theeng\lib\site-packages\plotly\validators\heatmap\_colorscale.py:4(ColorscaleValidator)
        1    0.000    0.000    0.000    0.000 c:\Virtual_Environments\theeng\lib\site-packages\plotly\validators\histogram2dcontour\_colorscale.py:4(ColorscaleValidator)
        1    0.000    0.000    0.000    0.000 c:\Virtual_Environments\theeng\lib\site-packages\plotly\validators\histogram2d\_colorbar.py:4(ColorbarValidator)
        1    0.000    0.000    0.000    0.000 c:\Virtual_Environments\theeng\lib\site-packages\plotly\validators\histogram2d\colorbar\_outlinewidth.py:4(OutlinewidthValidator)
        1    0.000    0.000    0.000    0.000 c:\Virtual_Environments\theeng\lib\site-packages\plotly\validators\histogram\marker\_pattern.py:4(PatternValidator)
        1    0.000    0.000    0.000    0.000 c:\Virtual_Environments\theeng\lib\site-packages\plotly\validators\histogram\marker\pattern\_fillmode.py:4(FillmodeValidator)
        1    0.000    0.000    0.000    0.000 c:\Virtual_Environments\theeng\lib\site-packages\plotly\validators\histogram\marker\pattern\_size.py:4(SizeValidator)
        1    0.000    0.000    0.000    0.000 c:\Virtual_Environments\theeng\lib\site-packages\plotly\validators\histogram\marker\pattern\_solidity.py:4(SolidityValidator)
        1    0.000    0.000    0.000    0.000 c:\Virtual_Environments\theeng\lib\site-packages\plotly\validators\layout\template\data\_mesh3d.py:4(Mesh3DValidator)
        1    0.000    0.000    0.000    0.000 c:\Virtual_Environments\theeng\lib\site-packages\plotly\validators\layout\_coloraxis.py:4(ColoraxisValidator)
        1    0.000    0.000    0.000    0.000 c:\Virtual_Environments\theeng\lib\site-packages\plotly\validators\layout\_hidesources.py:4(HidesourcesValidator)
        1    0.000    0.000    0.000    0.000 c:\Virtual_Environments\theeng\lib\site-packages\plotly\validators\layout\_funnelmode.py:4(FunnelmodeValidator)
        1    0.000    0.000    0.000    0.000 c:\Virtual_Environments\theeng\lib\site-packages\plotly\validators\layout\_plot_bgcolor.py:4(Plot_BgcolorValidator)
        1    0.000    0.000    0.000    0.000 c:\Virtual_Environments\theeng\lib\site-packages\plotly\validators\layout\annotation\_arrowhead.py:4(ArrowheadValidator)
        1    0.000    0.000    0.000    0.000 c:\Virtual_Environments\theeng\lib\site-packages\plotly\validators\layout\_barmode.py:4(BarmodeValidator)
        1    0.000    0.000    0.000    0.000 c:\Virtual_Environments\theeng\lib\site-packages\plotly\validators\layout\_width.py:4(WidthValidator)
        1    0.000    0.000    0.000    0.000 c:\Virtual_Environments\theeng\lib\site-packages\plotly\validators\layout\_barnorm.py:4(BarnormValidator)
        1    0.000    0.000    0.000    0.000 c:\Virtual_Environments\theeng\lib\site-packages\plotly\validators\layout\_shapedefaults.py:4(ShapedefaultsValidator)
        1    0.000    0.000    0.000    0.000 c:\Virtual_Environments\theeng\lib\site-packages\plotly\validators\parcoords\line\colorbar\_ticks.py:4(TicksValidator)
        1    0.000    0.000    0.000    0.000 c:\Virtual_Environments\theeng\lib\site-packages\plotly\validators\pie\_automargin.py:4(AutomarginValidator)
        1    0.000    0.000    0.000    0.000 c:\Virtual_Environments\theeng\lib\site-packages\plotly\validators\layout\template\data\_scatter3d.py:4(Scatter3DValidator)
        1    0.000    0.000    0.000    0.000 c:\Virtual_Environments\theeng\lib\site-packages\plotly\validators\scatter3d\line\_colorbar.py:4(ColorbarValidator)
        1    0.000    0.000    0.000    0.000 c:\Virtual_Environments\theeng\lib\site-packages\plotly\validators\scatter3d\line\colorbar\_outlinewidth.py:4(OutlinewidthValidator)
        1    0.000    0.000    0.000    0.000 c:\Virtual_Environments\theeng\lib\site-packages\plotly\validators\scatter3d\line\colorbar\_ticks.py:4(TicksValidator)
        1    0.000    0.000    0.000    0.000 c:\Virtual_Environments\theeng\lib\site-packages\plotly\validators\scatter3d\_marker.py:4(MarkerValidator)
        1    0.000    0.000    0.000    0.000 c:\Virtual_Environments\theeng\lib\site-packages\plotly\validators\scatter3d\marker\_colorbar.py:4(ColorbarValidator)
        1    0.000    0.000    0.000    0.000 c:\Virtual_Environments\theeng\lib\site-packages\plotly\validators\scattercarpet\_marker.py:4(MarkerValidator)
        1    0.000    0.000    0.000    0.000 c:\Virtual_Environments\theeng\lib\site-packages\plotly\validators\scattercarpet\marker\_colorbar.py:4(ColorbarValidator)
        1    0.000    0.000    0.000    0.000 c:\Virtual_Environments\theeng\lib\site-packages\plotly\validators\scattercarpet\marker\colorbar\_outlinewidth.py:4(OutlinewidthValidator)
        1    0.000    0.000    0.000    0.000 c:\Virtual_Environments\theeng\lib\site-packages\plotly\validators\scattergeo\marker\colorbar\_outlinewidth.py:4(OutlinewidthValidator)
        1    0.000    0.000    0.000    0.000 c:\Virtual_Environments\theeng\lib\site-packages\plotly\validators\scattergl\_marker.py:4(MarkerValidator)
        1    0.000    0.000    0.000    0.000 c:\Virtual_Environments\theeng\lib\site-packages\plotly\validators\scattergl\marker\_colorbar.py:4(ColorbarValidator)
        1    0.000    0.000    0.000    0.000 c:\Virtual_Environments\theeng\lib\site-packages\plotly\validators\scattergl\marker\colorbar\_outlinewidth.py:4(OutlinewidthValidator)
        1    0.000    0.000    0.000    0.000 c:\Virtual_Environments\theeng\lib\site-packages\plotly\validators\scattermapbox\marker\_colorbar.py:4(ColorbarValidator)
        1    0.000    0.000    0.000    0.000 c:\Virtual_Environments\theeng\lib\site-packages\plotly\validators\scattermapbox\marker\colorbar\_outlinewidth.py:4(OutlinewidthValidator)
        1    0.000    0.000    0.000    0.000 c:\Virtual_Environments\theeng\lib\site-packages\plotly\validators\scattermapbox\marker\colorbar\_ticks.py:4(TicksValidator)
        1    0.000    0.000    0.000    0.000 c:\Virtual_Environments\theeng\lib\site-packages\plotly\validators\layout\template\data\_scatterpolargl.py:4(ScatterpolarglValidator)
        1    0.000    0.000    0.000    0.000 c:\Virtual_Environments\theeng\lib\site-packages\plotly\validators\scatterpolargl\marker\colorbar\_outlinewidth.py:4(OutlinewidthValidator)
        1    0.000    0.000    0.000    0.000 c:\Virtual_Environments\theeng\lib\site-packages\plotly\validators\scatterpolargl\marker\colorbar\_ticks.py:4(TicksValidator)
        1    0.000    0.000    0.000    0.000 c:\Virtual_Environments\theeng\lib\site-packages\plotly\validators\scatterpolar\marker\colorbar\_outlinewidth.py:4(OutlinewidthValidator)
        1    0.000    0.000    0.000    0.000 c:\Virtual_Environments\theeng\lib\site-packages\plotly\validators\scatter\fillpattern\_fillmode.py:4(FillmodeValidator)
        1    0.000    0.000    0.000    0.000 c:\Virtual_Environments\theeng\lib\site-packages\plotly\validators\layout\template\data\_scatterternary.py:4(ScatterternaryValidator)
        1    0.000    0.000    0.000    0.000 c:\Virtual_Environments\theeng\lib\site-packages\plotly\validators\scatterternary\_marker.py:4(MarkerValidator)
        1    0.000    0.000    0.000    0.000 c:\Virtual_Environments\theeng\lib\site-packages\plotly\validators\scatterternary\marker\_colorbar.py:4(ColorbarValidator)
        1    0.000    0.000    0.000    0.000 c:\Virtual_Environments\theeng\lib\site-packages\plotly\validators\scatterternary\marker\colorbar\_ticks.py:4(TicksValidator)
        1    0.000    0.000    0.000    0.000 c:\Virtual_Environments\theeng\lib\site-packages\plotly\validators\layout\template\data\_surface.py:4(SurfaceValidator)
        1    0.000    0.000    0.000    0.000 c:\Virtual_Environments\theeng\lib\site-packages\plotly\validators\surface\colorbar\_outlinewidth.py:4(OutlinewidthValidator)
        1    0.000    0.000    0.000    0.000 c:\Virtual_Environments\theeng\lib\site-packages\plotly\validators\surface\colorbar\_ticks.py:4(TicksValidator)
        1    0.000    0.000    0.000    0.000 c:\Virtual_Environments\theeng\lib\site-packages\plotly\validators\layout\template\data\_table.py:4(TableValidator)
        1    0.000    0.000    0.000    0.000 c:\Virtual_Environments\theeng\lib\site-packages\plotly\validators\table\_cells.py:4(CellsValidator)
        1    0.000    0.000    0.000    0.000 c:\Virtual_Environments\theeng\lib\site-packages\plotly\validators\table\cells\_fill.py:4(FillValidator)
        1    0.000    0.000    0.000    0.000 c:\Virtual_Environments\theeng\lib\site-packages\plotly\validators\table\cells\_line.py:4(LineValidator)
        1    0.000    0.000    0.000    0.000 c:\Virtual_Environments\theeng\lib\site-packages\plotly\validators\table\_header.py:4(HeaderValidator)
        1    0.000    0.000    0.000    0.000 c:\Virtual_Environments\theeng\lib\site-packages\plotly\validators\layout\coloraxis\colorbar\_outlinewidth.py:4(OutlinewidthValidator)
        1    0.000    0.000    0.000    0.000 c:\Virtual_Environments\theeng\lib\site-packages\plotly\validators\layout\coloraxis\colorbar\_ticks.py:4(TicksValidator)
        1    0.000    0.000    0.000    0.000 c:\Virtual_Environments\theeng\lib\site-packages\plotly\validators\layout\colorscale\_sequentialminus.py:4(SequentialminusValidator)
        1    0.000    0.000    0.000    0.000 c:\Virtual_Environments\theeng\lib\site-packages\plotly\validators\layout\font\_color.py:4(ColorValidator)
        1    0.000    0.000    0.000    0.000 c:\Virtual_Environments\theeng\lib\site-packages\plotly\validators\layout\geo\_landcolor.py:4(LandcolorValidator)
        1    0.000    0.000    0.000    0.000 c:\Virtual_Environments\theeng\lib\site-packages\plotly\validators\layout\geo\_showlakes.py:4(ShowlakesValidator)
        1    0.000    0.000    0.000    0.000 c:\Virtual_Environments\theeng\lib\site-packages\plotly\validators\layout\geo\_showland.py:4(ShowlandValidator)
        1    0.000    0.000    0.000    0.000 c:\Virtual_Environments\theeng\lib\site-packages\plotly\validators\layout\hoverlabel\_align.py:4(AlignValidator)
        1    0.000    0.000    0.000    0.000 c:\Virtual_Environments\theeng\lib\site-packages\plotly\validators\layout\mapbox\_style.py:4(StyleValidator)
        1    0.000    0.000    0.000    0.000 c:\Virtual_Environments\theeng\lib\site-packages\plotly\validators\layout\polar\_angularaxis.py:4(AngularaxisValidator)
        1    0.000    0.000    0.000    0.000 c:\Virtual_Environments\theeng\lib\site-packages\plotly\validators\layout\polar\_bgcolor.py:4(BgcolorValidator)
        1    0.000    0.000    0.000    0.000 c:\Virtual_Environments\theeng\lib\site-packages\plotly\validators\layout\polar\radialaxis\_gridcolor.py:4(GridcolorValidator)
        1    0.000    0.000    0.000    0.000 c:\Virtual_Environments\theeng\lib\site-packages\plotly\validators\layout\polar\radialaxis\_linecolor.py:4(LinecolorValidator)
        1    0.000    0.000    0.000    0.000 c:\Virtual_Environments\theeng\lib\site-packages\plotly\validators\layout\polar\radialaxis\_ticks.py:4(TicksValidator)
        1    0.000    0.000    0.000    0.000 c:\Virtual_Environments\theeng\lib\site-packages\plotly\validators\layout\scene\xaxis\_gridcolor.py:4(GridcolorValidator)
        1    0.000    0.000    0.000    0.000 c:\Virtual_Environments\theeng\lib\site-packages\plotly\validators\layout\scene\xaxis\_linecolor.py:4(LinecolorValidator)
        1    0.000    0.000    0.000    0.000 c:\Virtual_Environments\theeng\lib\site-packages\plotly\validators\layout\scene\xaxis\_ticks.py:4(TicksValidator)
        1    0.000    0.000    0.000    0.000 c:\Virtual_Environments\theeng\lib\site-packages\plotly\validators\layout\scene\yaxis\_gridwidth.py:4(GridwidthValidator)
        1    0.000    0.000    0.000    0.000 c:\Virtual_Environments\theeng\lib\site-packages\plotly\validators\layout\scene\yaxis\_linecolor.py:4(LinecolorValidator)
        1    0.000    0.000    0.000    0.000 c:\Virtual_Environments\theeng\lib\site-packages\plotly\validators\layout\scene\yaxis\_ticks.py:4(TicksValidator)
        1    0.000    0.000    0.000    0.000 c:\Virtual_Environments\theeng\lib\site-packages\plotly\validators\layout\scene\zaxis\_gridcolor.py:4(GridcolorValidator)
        1    0.000    0.000    0.000    0.000 c:\Virtual_Environments\theeng\lib\site-packages\plotly\validators\layout\scene\zaxis\_showbackground.py:4(ShowbackgroundValidator)
        1    0.000    0.000    0.000    0.000 c:\Virtual_Environments\theeng\lib\site-packages\plotly\validators\layout\scene\zaxis\_zerolinecolor.py:4(ZerolinecolorValidator)
        1    0.000    0.000    0.000    0.000 c:\Virtual_Environments\theeng\lib\site-packages\plotly\validators\layout\shape\line\_color.py:4(ColorValidator)
        1    0.000    0.000    0.000    0.000 c:\Virtual_Environments\theeng\lib\site-packages\plotly\validators\layout\ternary\_aaxis.py:4(AaxisValidator)
        1    0.000    0.000    0.000    0.000 c:\Virtual_Environments\theeng\lib\site-packages\plotly\validators\layout\ternary\aaxis\_gridcolor.py:4(GridcolorValidator)
        1    0.000    0.000    0.000    0.000 c:\Virtual_Environments\theeng\lib\site-packages\plotly\validators\layout\ternary\_baxis.py:4(BaxisValidator)
        1    0.000    0.000    0.000    0.000 c:\Virtual_Environments\theeng\lib\site-packages\plotly\validators\layout\ternary\baxis\_linecolor.py:4(LinecolorValidator)
        1    0.000    0.000    0.000    0.000 c:\Virtual_Environments\theeng\lib\site-packages\plotly\validators\layout\ternary\_bgcolor.py:4(BgcolorValidator)
        1    0.000    0.000    0.000    0.000 c:\Virtual_Environments\theeng\lib\site-packages\plotly\validators\layout\ternary\caxis\_gridcolor.py:4(GridcolorValidator)
        1    0.000    0.000    0.000    0.000 c:\Virtual_Environments\theeng\lib\site-packages\plotly\validators\layout\ternary\caxis\_linecolor.py:4(LinecolorValidator)
        1    0.000    0.000    0.000    0.000 c:\Virtual_Environments\theeng\lib\site-packages\plotly\validators\layout\ternary\caxis\_ticks.py:4(TicksValidator)
        1    0.000    0.000    0.000    0.000 c:\Virtual_Environments\theeng\lib\site-packages\plotly\validators\layout\title\_x.py:4(XValidator)
        1    0.000    0.000    0.000    0.000 c:\Virtual_Environments\theeng\lib\site-packages\plotly\validators\layout\xaxis\_gridcolor.py:4(GridcolorValidator)
        1    0.000    0.000    0.000    0.000 c:\Virtual_Environments\theeng\lib\site-packages\plotly\validators\layout\xaxis\_ticks.py:4(TicksValidator)
        1    0.000    0.000    0.000    0.000 c:\Virtual_Environments\theeng\lib\site-packages\plotly\validators\layout\xaxis\_title.py:4(TitleValidator)
        1    0.000    0.000    0.000    0.000 c:\Virtual_Environments\theeng\lib\site-packages\plotly\validators\layout\yaxis\title\_standoff.py:4(StandoffValidator)
        1    0.000    0.000    0.000    0.000 c:\Virtual_Environments\theeng\lib\site-packages\plotly\validators\heatmap\_xaxis.py:4(XaxisValidator)
        1    0.000    0.000    0.000    0.000 c:\Virtual_Environments\theeng\lib\site-packages\plotly\validators\heatmap\_yaxis.py:4(YaxisValidator)
        1    0.000    0.000    0.000    0.000 c:\Virtual_Environments\theeng\lib\site-packages\plotly\validators\layout\yaxis\_autorange.py:4(AutorangeValidator)
        1    0.000    0.000    0.000    0.000 c:\Virtual_Environments\theeng\lib\site-packages\plotly\validators\layout\coloraxis\_cmin.py:4(CminValidator)
        1    0.000    0.000    0.000    0.000 c:\Virtual_Environments\theeng\lib\site-packages\plotly\validators\layout\coloraxis\_cmax.py:4(CmaxValidator)
        1    0.000    0.000    0.000    0.000 c:\Virtual_Environments\theeng\lib\site-packages\pandas\core\indexes\base.py:5411(<listcomp>)
        2    0.000    0.000    0.000    0.000 c:\Virtual_Environments\theeng\lib\site-packages\pandas\core\apply.py:673(index)
        1    0.000    0.000    0.000    0.000 c:\Virtual_Environments\theeng\lib\site-packages\pandas\core\indexes\api.py:349(<setcomp>)
        4    0.000    0.000    0.000    0.000 c:\Virtual_Environments\theeng\lib\site-packages\pandas\core\internals\construction.py:488(<listcomp>)
        1    0.000    0.000    0.000    0.000 c:\Virtual_Environments\theeng\lib\site-packages\pandas\core\groupby\ops.py:905(<listcomp>)
        1    0.000    0.000    0.000    0.000 c:\Virtual_Environments\theeng\lib\site-packages\sklearn\base.py:1004(is_classifier)
        5    0.000    0.000    0.000    0.000 c:\Virtual_Environments\theeng\lib\site-packages\joblib\_parallel_backends.py:599(get)
        2    0.000    0.000    0.000    0.000 c:\Virtual_Environments\theeng\lib\site-packages\plotly\express\_core.py:204(<lambda>)
        2    0.000    0.000    0.000    0.000 c:\Virtual_Environments\theeng\lib\site-packages\plotly\basedatatypes.py:1985(<listcomp>)
        1    0.000    0.000    0.000    0.000 C:\Engineering Programs\FreeCAD 0.20\Mod\Fem\femsolver\run.py:517(Solve)
        1    0.000    0.000    0.000    0.000 c:\Virtual_Environments\theeng\lib\site-packages\plotly\offline\offline.py:34(get_plotlyjs_version)
        1    0.000    0.000    0.000    0.000 c:\Virtual_Environments\theeng\lib\site-packages\plotly\graph_objs\layout\_legend.py:452(title)
        1    0.000    0.000    0.000    0.000 c:\Virtual_Environments\theeng\lib\site-packages\plotly\validators\carpet\_baxis.py:4(BaxisValidator)
        1    0.000    0.000    0.000    0.000 C:\Python38\lib\webbrowser.py:158(GenericBrowser)
        1    0.000    0.000    0.000    0.000 c:\Virtual_Environments\theeng\lib\site-packages\plotly\graph_objs\_parcoords.py:876(type)
        1    0.000    0.000    0.000    0.000 c:\Virtual_Environments\theeng\lib\site-packages\plotly\validators\layout\template\data\_pie.py:4(PieValidator)
        1    0.000    0.000    0.000    0.000 c:\Virtual_Environments\theeng\lib\site-packages\plotly\validators\layout\template\data\_scattercarpet.py:4(ScattercarpetValidator)
        1    0.000    0.000    0.000    0.000 c:\Virtual_Environments\theeng\lib\site-packages\plotly\validators\layout\template\data\_scattergl.py:4(ScatterglValidator)
        1    0.000    0.000    0.000    0.000 c:\Virtual_Environments\theeng\lib\site-packages\plotly\validators\layout\template\data\_scattermapbox.py:4(ScattermapboxValidator)
        1    0.000    0.000    0.000    0.000 c:\Virtual_Environments\theeng\lib\site-packages\plotly\validators\scatterternary\marker\colorbar\_outlinewidth.py:4(OutlinewidthValidator)
        1    0.000    0.000    0.000    0.000 c:\Virtual_Environments\theeng\lib\site-packages\numpy\core\__init__.py:146(_DType_reduce)
        2    0.000    0.000    0.000    0.000 C:\Python38\lib\typing.py:669(<genexpr>)
        1    0.000    0.000    0.000    0.000 c:\Virtual_Environments\theeng\lib\site-packages\pandas\core\dtypes\concat.py:108(<setcomp>)
        2    0.000    0.000    0.000    0.000 c:\Virtual_Environments\theeng\lib\site-packages\pandas\core\sorting.py:615(<genexpr>)
        2    0.000    0.000    0.000    0.000 c:\Virtual_Environments\theeng\lib\site-packages\pandas\core\generic.py:1721(<genexpr>)
        1    0.000    0.000    0.000    0.000 c:\Virtual_Environments\theeng\lib\site-packages\pandas\core\generic.py:1835(<listcomp>)
        1    0.000    0.000    0.000    0.000 c:\Virtual_Environments\theeng\lib\site-packages\pandas\core\indexes\range.py:189(_constructor)
        3    0.000    0.000    0.000    0.000 c:\Virtual_Environments\theeng\lib\site-packages\pandas\core\indexes\range.py:357(is_unique)
        3    0.000    0.000    0.000    0.000 c:\Virtual_Environments\theeng\lib\site-packages\pandas\core\internals\concat.py:663(<genexpr>)
        1    0.000    0.000    0.000    0.000 c:\Virtual_Environments\theeng\lib\site-packages\pandas\io\formats\format.py:755(_adjust_max_rows)
        1    0.000    0.000    0.000    0.000 c:\Virtual_Environments\theeng\lib\site-packages\pandas\io\formats\format.py:1027(__init__)
        1    0.000    0.000    0.000    0.000 {method 'write' of '_io.StringIO' objects}
        1    0.000    0.000    0.000    0.000 {method 'disable' of '_lsprof.Profiler' objects}
        1    0.000    0.000    0.000    0.000 c:\Virtual_Environments\theeng\lib\site-packages\plotly\graph_objs\_scatter.py:2284(type)
        1    0.000    0.000    0.000    0.000 C:\Engineering Programs\FreeCAD 0.20\Mod\Fem\femsolver\calculix\tasks.py:72(Prepare)
        1    0.000    0.000    0.000    0.000 c:\Virtual_Environments\theeng\lib\site-packages\plotly\graph_objs\_deprecations.py:359(Line)
        1    0.000    0.000    0.000    0.000 C:\Python38\lib\webbrowser.py:315(Chrome)
        1    0.000    0.000    0.000    0.000 C:\Python38\lib\webbrowser.py:337(Elinks)
        1    0.000    0.000    0.000    0.000 c:\Virtual_Environments\theeng\lib\site-packages\plotly\io\_json.py:18(__init__)
        1    0.000    0.000    0.000    0.000 c:\Virtual_Environments\theeng\lib\site-packages\pandas\core\dtypes\concat.py:109(<setcomp>)
        1    0.000    0.000    0.000    0.000 c:\Virtual_Environments\theeng\lib\site-packages\pandas\core\apply.py:719(columns)
        1    0.000    0.000    0.000    0.000 c:\Virtual_Environments\theeng\lib\site-packages\pandas\core\internals\concat.py:217(<listcomp>)
        1    0.000    0.000    0.000    0.000 c:\Virtual_Environments\theeng\lib\site-packages\pandas\io\formats\format.py:667(_initialize_sparsify)
        1    0.000    0.000    0.000    0.000 c:\Virtual_Environments\theeng\lib\site-packages\pandas\io\formats\format.py:672(_initialize_formatters)
        2    0.000    0.000    0.000    0.000 c:\Virtual_Environments\theeng\lib\site-packages\pandas\io\formats\format.py:963(<dictcomp>)
        1    0.000    0.000    0.000    0.000 c:\Virtual_Environments\theeng\lib\site-packages\pandas\core\groupby\grouper.py:857(is_in_obj)
        1    0.000    0.000    0.000    0.000 c:\Virtual_Environments\theeng\lib\site-packages\pandas\core\groupby\grouper.py:927(_is_label_like)
        1    0.000    0.000    0.000    0.000 c:\Virtual_Environments\theeng\lib\site-packages\theeng\core\ranker.py:49(<listcomp>)
        1    0.000    0.000    0.000    0.000 C:\Python38\lib\multiprocessing\process.py:37(current_process)
        1    0.000    0.000    0.000    0.000 c:\Virtual_Environments\theeng\lib\site-packages\typing_extensions.py:122(_should_collect_from_parameters)
        1    0.000    0.000    0.000    0.000 {method 'getvalue' of '_io.StringIO' objects}
        1    0.000    0.000    0.000    0.000 c:\Virtual_Environments\theeng\lib\site-packages\plotly\basedatatypes.py:3083(<listcomp>)
        1    0.000    0.000    0.000    0.000 C:\Engineering Programs\FreeCAD 0.20\Mod\Fem\femsolver\calculix\solver.py:93(ViewProxy)
        1    0.000    0.000    0.000    0.000 C:\Engineering Programs\FreeCAD 0.20\Mod\Fem\femtools\errors.py:30(MustSaveError)
        1    0.000    0.000    0.000    0.000 C:\Python38\lib\webbrowser.py:14(Error)
        1    0.000    0.000    0.000    0.000 C:\Python38\lib\webbrowser.py:186(BackgroundBrowser)
        1    0.000    0.000    0.000    0.000 c:\Virtual_Environments\theeng\lib\site-packages\plotly\graph_objs\_deprecations.py:474(Scene)
        1    0.000    0.000    0.000    0.000 c:\Virtual_Environments\theeng\lib\site-packages\plotly\graph_objs\_deprecations.py:555(YAxis)
        1    0.000    0.000    0.000    0.000 c:\Virtual_Environments\theeng\lib\site-packages\plotly\graph_objs\_deprecations.py:608(XBins)
        1    0.000    0.000    0.000    0.000 c:\Virtual_Environments\theeng\lib\site-packages\plotly\graph_objs\_deprecations.py:45(Annotations)
        1    0.000    0.000    0.000    0.000 c:\Virtual_Environments\theeng\lib\site-packages\plotly\graph_objs\_deprecations.py:73(Frames)
        1    0.000    0.000    0.000    0.000 c:\Virtual_Environments\theeng\lib\site-packages\plotly\graph_objs\_deprecations.py:98(AngularAxis)
        1    0.000    0.000    0.000    0.000 C:\Python38\lib\webbrowser.py:351(Konqueror)
        1    0.000    0.000    0.000    0.000 C:\Python38\lib\webbrowser.py:599(WindowsDefault)
        1    0.000    0.000    0.000    0.000 C:\Python38\lib\webbrowser.py:327(Opera)
        1    0.000    0.000    0.000    0.000 C:\Python38\lib\webbrowser.py:404(Grail)
        1    0.000    0.000    0.000    0.000 c:\Virtual_Environments\theeng\lib\site-packages\numpy\lib\function_base.py:5050(_delete_dispatcher)
        2    0.000    0.000    0.000    0.000 c:\Virtual_Environments\theeng\lib\site-packages\pandas\core\generic.py:1775(<genexpr>)
        1    0.000    0.000    0.000    0.000 c:\Virtual_Environments\theeng\lib\site-packages\pandas\io\formats\format.py:701(_initialize_colspace)
        1    0.000    0.000    0.000    0.000 c:\Virtual_Environments\theeng\lib\site-packages\pandas\core\groupby\ops.py:864(<listcomp>)
        2    0.000    0.000    0.000    0.000 c:\Virtual_Environments\theeng\lib\site-packages\pymoo\core\callback.py:8(initialize)
        1    0.000    0.000    0.000    0.000 c:\Virtual_Environments\theeng\lib\site-packages\pymoo\util\display\display.py:31(finalize)
        1    0.000    0.000    0.000    0.000 c:\Virtual_Environments\theeng\lib\site-packages\theeng\core\problem.py:140(getNobj)
        1    0.000    0.000    0.000    0.000 c:\Virtual_Environments\theeng\lib\site-packages\theeng\core\problem.py:148(getNconst)
        2    0.000    0.000    0.000    0.000 c:\Virtual_Environments\theeng\lib\site-packages\joblib\_parallel_backends.py:137(retrieval_context)
        1    0.000    0.000    0.000    0.000 C:\Engineering Programs\FreeCAD 0.20\Mod\Fem\femtools\errors.py:34(DirectoryDoesNotExistError)
        1    0.000    0.000    0.000    0.000 C:\Engineering Programs\FreeCAD 0.20\Mod\Fem\feminout\__init__.py:1(<module>)
        1    0.000    0.000    0.000    0.000 c:\Virtual_Environments\theeng\lib\site-packages\plotly\animation.py:50(DurationValidator)
        1    0.000    0.000    0.000    0.000 c:\Virtual_Environments\theeng\lib\site-packages\plotly\graph_objs\_deprecations.py:664(Trace)
        1    0.000    0.000    0.000    0.000 c:\Virtual_Environments\theeng\lib\site-packages\plotly\graph_objs\_deprecations.py:701(Histogram2dcontour)
        1    0.000    0.000    0.000    0.000 c:\Virtual_Environments\theeng\lib\site-packages\plotly\graph_objs\_deprecations.py:390(Margin)
        1    0.000    0.000    0.000    0.000 c:\Virtual_Environments\theeng\lib\site-packages\plotly\graph_objs\_deprecations.py:583(ZAxis)
        1    0.000    0.000    0.000    0.000 c:\Virtual_Environments\theeng\lib\site-packages\plotly\graph_objs\_deprecations.py:185(Contours)
        1    0.000    0.000    0.000    0.000 c:\Virtual_Environments\theeng\lib\site-packages\plotly\graph_objs\_deprecations.py:216(ErrorX)
        1    0.000    0.000    0.000    0.000 c:\Virtual_Environments\theeng\lib\site-packages\plotly\graph_objs\_deprecations.py:247(ErrorY)
        1    0.000    0.000    0.000    0.000 c:\Virtual_Environments\theeng\lib\site-packages\plotly\graph_objs\_deprecations.py:278(ErrorZ)
        1    0.000    0.000    0.000    0.000 c:\Virtual_Environments\theeng\lib\site-packages\plotly\graph_objs\_deprecations.py:303(Font)
        2    0.000    0.000    0.000    0.000 c:\Virtual_Environments\theeng\lib\site-packages\numpy\core\numerictypes.py:650(<listcomp>)
        1    0.000    0.000    0.000    0.000 c:\Virtual_Environments\theeng\lib\site-packages\pandas\core\dtypes\concat.py:116(<setcomp>)
        1    0.000    0.000    0.000    0.000 c:\Virtual_Environments\theeng\lib\site-packages\pandas\core\base.py:161(_freeze)
        1    0.000    0.000    0.000    0.000 c:\Virtual_Environments\theeng\lib\site-packages\pandas\core\groupby\grouper.py:587(_ilevel)
        1    0.000    0.000    0.000    0.000 c:\Virtual_Environments\theeng\lib\site-packages\pymoo\core\algorithm.py:358(n_gen)
        1    0.000    0.000    0.000    0.000 c:\Virtual_Environments\theeng\lib\site-packages\theeng\algorithms\surrogates.py:12(__init__)
        2    0.000    0.000    0.000    0.000 c:\Virtual_Environments\theeng\lib\site-packages\plotly\basedatatypes.py:1432(<lambda>)
        1    0.000    0.000    0.000    0.000 c:\Virtual_Environments\theeng\lib\site-packages\plotly\basedatatypes.py:5334(<listcomp>)
        1    0.000    0.000    0.000    0.000 c:\Virtual_Environments\theeng\lib\site-packages\plotly\offline\_plotlyjs_version.py:3(<module>)
        1    0.000    0.000    0.000    0.000 <string>:1(<module>)
        1    0.000    0.000    0.000    0.000 c:\Virtual_Environments\theeng\lib\site-packages\plotly\graph_objs\_deprecations.py:415(Marker)
        1    0.000    0.000    0.000    0.000 c:\Virtual_Environments\theeng\lib\site-packages\plotly\graph_objs\_deprecations.py:446(RadialAxis)
        1    0.000    0.000    0.000    0.000 c:\Virtual_Environments\theeng\lib\site-packages\plotly\graph_objs\_deprecations.py:499(Stream)
        1    0.000    0.000    0.000    0.000 c:\Virtual_Environments\theeng\lib\site-packages\plotly\graph_objs\_deprecations.py:527(XAxis)
        1    0.000    0.000    0.000    0.000 c:\Virtual_Environments\theeng\lib\site-packages\plotly\graph_objs\_deprecations.py:636(YBins)
        1    0.000    0.000    0.000    0.000 c:\Virtual_Environments\theeng\lib\site-packages\plotly\graph_objs\_deprecations.py:126(Annotation)
        1    0.000    0.000    0.000    0.000 c:\Virtual_Environments\theeng\lib\site-packages\plotly\graph_objs\_deprecations.py:154(ColorBar)
        1    0.000    0.000    0.000    0.000 c:\Virtual_Environments\theeng\lib\site-packages\plotly\graph_objs\_deprecations.py:334(Legend)
        2    0.000    0.000    0.000    0.000 c:\Virtual_Environments\theeng\lib\site-packages\pandas\core\groupby\groupby.py:702(<lambda>)
        1    0.000    0.000    0.000    0.000 c:\Virtual_Environments\theeng\lib\site-packages\pymoo\core\algorithm.py:347(_finalize)
        1    0.000    0.000    0.000    0.000 c:\Virtual_Environments\theeng\lib\site-packages\theeng\core\problem.py:124(getIterableOutput)
        1    0.000    0.000    0.000    0.000 c:\Virtual_Environments\theeng\lib\site-packages\joblib\_parallel_backends.py:86(terminate)
        1    0.000    0.000    0.000    0.000 c:\Virtual_Environments\theeng\lib\site-packages\joblib\_parallel_backends.py:200(effective_n_jobs)
        1    0.000    0.000    0.000    0.000 {method 'pop' of 'set' objects}
        1    0.000    0.000    0.000    0.000 C:\Engineering Programs\FreeCAD 0.20\Mod\Fem\femsolver\__init__.py:1(<module>)
        1    0.000    0.000    0.000    0.000 C:\Engineering Programs\FreeCAD 0.20\Mod\Fem\femmesh\__init__.py:1(<module>)
        1    0.000    0.000    0.000    0.000 C:\Engineering Programs\FreeCAD 0.20\Mod\Fem\femsolver\run.py:533(Prepare)
        1    0.000    0.000    0.000    0.000 C:\Engineering Programs\FreeCAD 0.20\Mod\Fem\femsolver\run.py:537(Results)
        1    0.000    0.000    0.000    0.000 C:\Engineering Programs\FreeCAD 0.20\Mod\Fem\femresult\__init__.py:1(<module>)
        1    0.000    0.000    0.000    0.000 c:\Virtual_Environments\theeng\lib\site-packages\pymoo\decomposition\__init__.py:1(<module>)
        1    0.000    0.000    0.000    0.000 c:\Virtual_Environments\theeng\lib\site-packages\pymoo\cython\__init__.py:1(<module>)
        1    0.000    0.000    0.000    0.000 C:\Python38\lib\contextlib.py:59(_recreate_cm)
        1    0.000    0.000    0.000    0.000 c:\Virtual_Environments\theeng\lib\site-packages\theeng\algorithms\optimizers.py:13(__init__)
        1    0.000    0.000    0.000    0.000 c:\Virtual_Environments\theeng\lib\site-packages\joblib\_parallel_backends.py:80(start_call)
        1    0.000    0.000    0.000    0.000 c:\Virtual_Environments\theeng\lib\site-packages\joblib\_parallel_backends.py:83(stop_call)
        1    0.000    0.000    0.000    0.000 {pymoo.cython.info.info}
        1    0.000    0.000    0.000    0.000 C:\Engineering Programs\FreeCAD 0.20\Mod\Fem\femobjects\__init__.py:1(<module>)
        1    0.000    0.000    0.000    0.000 C:\Engineering Programs\FreeCAD 0.20\Mod\Fem\femsolver\calculix\__init__.py:1(<module>)


